*Heading
** Job name: Job-1 Model name: Model-1
** Generated by: Abaqus/CAE 2021
*Preprint, echo=NO, model=NO, history=NO, contact=NO
**
** PARTS
**
*Part, name=blank
*Node
      1,           0.,          10.,           0.
      2,          10.,           0.,           0.
      3,           0.,           0.,           0.
      4,           0.,          10.,           1.
      5,          10.,           0.,           1.
      6,           0.,           0.,           1.
      7,        56.25,           0.,           0.
      8,        56.25,           0.,           1.
      9,           0.,        56.25,           1.
     10,           0.,        56.25,           0.
     11,           0.,        0.625,           0.
     12,           0.,         1.25,           0.
     13,           0.,        1.875,           0.
     14,           0.,          2.5,           0.
     15,           0.,        3.125,           0.
     16,           0.,         3.75,           0.
     17,           0.,        4.375,           0.
     18,           0.,           5.,           0.
     19,           0.,        5.625,           0.
     20,           0.,         6.25,           0.
     21,           0.,        6.875,           0.
     22,           0.,          7.5,           0.
     23,           0.,        8.125,           0.
     24,           0.,         8.75,           0.
     25,           0.,        9.375,           0.
     26,  0.523359537,    9.9862957,           0.
     27,   1.04528463,   9.94521904,           0.
     28,   1.56434464,   9.87688351,           0.
     29,   2.07911682,   9.78147602,           0.
     30,   2.58819056,   9.65925789,           0.
     31,   3.09016991,    9.5105648,           0.
     32,   3.58367944,   9.33580399,           0.
     33,    4.0673666,   9.13545418,           0.
     34,   4.53990507,   8.91006565,           0.
     35,           5.,   8.66025448,           0.
     36,   5.44639015,    8.3867054,           0.
     37,   5.87785244,   8.09016991,           0.
     38,   6.29320383,   7.77145958,           0.
     39,   6.69130611,   7.43144846,           0.
     40,   7.07106781,   7.07106781,           0.
     41,   7.43144846,   6.69130611,           0.
     42,   7.77145958,   6.29320383,           0.
     43,   8.09016991,   5.87785244,           0.
     44,    8.3867054,   5.44639015,           0.
     45,   8.66025448,           5.,           0.
     46,   8.91006565,   4.53990507,           0.
     47,   9.13545418,    4.0673666,           0.
     48,   9.33580399,   3.58367944,           0.
     49,    9.5105648,   3.09016991,           0.
     50,   9.65925789,   2.58819056,           0.
     51,   9.78147602,   2.07911682,           0.
     52,   9.87688351,   1.56434464,           0.
     53,   9.94521904,   1.04528463,           0.
     54,    9.9862957,  0.523359537,           0.
     55,           0.,          10.,  0.333333343
     56,           0.,          10.,  0.666666687
     57,        9.375,           0.,           0.
     58,         8.75,           0.,           0.
     59,        8.125,           0.,           0.
     60,          7.5,           0.,           0.
     61,        6.875,           0.,           0.
     62,         6.25,           0.,           0.
     63,        5.625,           0.,           0.
     64,           5.,           0.,           0.
     65,        4.375,           0.,           0.
     66,         3.75,           0.,           0.
     67,        3.125,           0.,           0.
     68,          2.5,           0.,           0.
     69,        1.875,           0.,           0.
     70,         1.25,           0.,           0.
     71,        0.625,           0.,           0.
     72,          10.,           0.,  0.333333343
     73,          10.,           0.,  0.666666687
     74,           0.,           0.,  0.333333343
     75,           0.,           0.,  0.666666687
     76,  0.523359537,    9.9862957,           1.
     77,   1.04528463,   9.94521904,           1.
     78,   1.56434464,   9.87688351,           1.
     79,   2.07911682,   9.78147602,           1.
     80,   2.58819056,   9.65925789,           1.
     81,   3.09016991,    9.5105648,           1.
     82,   3.58367944,   9.33580399,           1.
     83,    4.0673666,   9.13545418,           1.
     84,   4.53990507,   8.91006565,           1.
     85,           5.,   8.66025448,           1.
     86,   5.44639015,    8.3867054,           1.
     87,   5.87785244,   8.09016991,           1.
     88,   6.29320383,   7.77145958,           1.
     89,   6.69130611,   7.43144846,           1.
     90,   7.07106781,   7.07106781,           1.
     91,   7.43144846,   6.69130611,           1.
     92,   7.77145958,   6.29320383,           1.
     93,   8.09016991,   5.87785244,           1.
     94,    8.3867054,   5.44639015,           1.
     95,   8.66025448,           5.,           1.
     96,   8.91006565,   4.53990507,           1.
     97,   9.13545418,    4.0673666,           1.
     98,   9.33580399,   3.58367944,           1.
     99,    9.5105648,   3.09016991,           1.
    100,   9.65925789,   2.58819056,           1.
    101,   9.78147602,   2.07911682,           1.
    102,   9.87688351,   1.56434464,           1.
    103,   9.94521904,   1.04528463,           1.
    104,    9.9862957,  0.523359537,           1.
    105,           0.,        9.375,           1.
    106,           0.,         8.75,           1.
    107,           0.,        8.125,           1.
    108,           0.,          7.5,           1.
    109,           0.,        6.875,           1.
    110,           0.,         6.25,           1.
    111,           0.,        5.625,           1.
    112,           0.,           5.,           1.
    113,           0.,        4.375,           1.
    114,           0.,         3.75,           1.
    115,           0.,        3.125,           1.
    116,           0.,          2.5,           1.
    117,           0.,        1.875,           1.
    118,           0.,         1.25,           1.
    119,           0.,        0.625,           1.
    120,        9.375,           0.,           1.
    121,         8.75,           0.,           1.
    122,        8.125,           0.,           1.
    123,          7.5,           0.,           1.
    124,        6.875,           0.,           1.
    125,         6.25,           0.,           1.
    126,        5.625,           0.,           1.
    127,           5.,           0.,           1.
    128,        4.375,           0.,           1.
    129,         3.75,           0.,           1.
    130,        3.125,           0.,           1.
    131,          2.5,           0.,           1.
    132,        1.875,           0.,           1.
    133,         1.25,           0.,           1.
    134,        0.625,           0.,           1.
    135,    11.541667,           0.,           0.
    136,    13.083333,           0.,           0.
    137,       14.625,           0.,           0.
    138,    16.166666,           0.,           0.
    139,    17.708334,           0.,           0.
    140,        19.25,           0.,           0.
    141,    20.791666,           0.,           0.
    142,    22.333334,           0.,           0.
    143,       23.875,           0.,           0.
    144,    25.416666,           0.,           0.
    145,    26.958334,           0.,           0.
    146,         28.5,           0.,           0.
    147,    30.041666,           0.,           0.
    148,    31.583334,           0.,           0.
    149,       33.125,           0.,           0.
    150,   34.6666679,           0.,           0.
    151,   36.2083321,           0.,           0.
    152,        37.75,           0.,           0.
    153,   39.2916679,           0.,           0.
    154,   40.8333321,           0.,           0.
    155,       42.375,           0.,           0.
    156,   43.9166679,           0.,           0.
    157,   45.4583321,           0.,           0.
    158,          47.,           0.,           0.
    159,   48.5416679,           0.,           0.
    160,   50.0833321,           0.,           0.
    161,       51.625,           0.,           0.
    162,   53.1666679,           0.,           0.
    163,   54.7083321,           0.,           0.
    164,        56.25,           0.,  0.333333343
    165,        56.25,           0.,  0.666666687
    166,   54.7083321,           0.,           1.
    167,   53.1666679,           0.,           1.
    168,       51.625,           0.,           1.
    169,   50.0833321,           0.,           1.
    170,   48.5416679,           0.,           1.
    171,          47.,           0.,           1.
    172,   45.4583321,           0.,           1.
    173,   43.9166679,           0.,           1.
    174,       42.375,           0.,           1.
    175,   40.8333321,           0.,           1.
    176,   39.2916679,           0.,           1.
    177,        37.75,           0.,           1.
    178,   36.2083321,           0.,           1.
    179,   34.6666679,           0.,           1.
    180,       33.125,           0.,           1.
    181,    31.583334,           0.,           1.
    182,    30.041666,           0.,           1.
    183,         28.5,           0.,           1.
    184,    26.958334,           0.,           1.
    185,    25.416666,           0.,           1.
    186,       23.875,           0.,           1.
    187,    22.333334,           0.,           1.
    188,    20.791666,           0.,           1.
    189,        19.25,           0.,           1.
    190,    17.708334,           0.,           1.
    191,    16.166666,           0.,           1.
    192,       14.625,           0.,           1.
    193,    13.083333,           0.,           1.
    194,    11.541667,           0.,           1.
    195,   56.1729126,   2.94389749,           0.
    196,   55.9418564,   5.87972593,           0.
    197,   55.5574684,   8.79943848,           0.
    198,   55.0208015,   11.6950331,           0.
    199,   54.3333282,   14.5585709,           0.
    200,   53.4969292,    17.382206,           0.
    201,   52.5139008,   20.1581974,           0.
    202,   51.3869324,   22.8789368,           0.
    203,   50.1191177,   25.5369663,           0.
    204,   48.7139282,       28.125,           0.
    205,   47.1752205,   30.6359463,           0.
    206,    45.507206,   33.0629196,           0.
    207,   43.7144585,   35.3992729,           0.
    208,   41.8018951,   37.6385956,           0.
    209,   39.7747574,   39.7747574,           0.
    210,   37.6385956,   41.8018951,           0.
    211,   35.3992729,   43.7144585,           0.
    212,   33.0629196,    45.507206,           0.
    213,   30.6359463,   47.1752205,           0.
    214,       28.125,   48.7139282,           0.
    215,   25.5369663,   50.1191177,           0.
    216,   22.8789368,   51.3869324,           0.
    217,   20.1581974,   52.5139008,           0.
    218,    17.382206,   53.4969292,           0.
    219,   14.5585709,   54.3333282,           0.
    220,   11.6950331,   55.0208015,           0.
    221,   8.79943848,   55.5574684,           0.
    222,   5.87972593,   55.9418564,           0.
    223,   2.94389749,   56.1729126,           0.
    224,   2.94389749,   56.1729126,           1.
    225,   5.87972593,   55.9418564,           1.
    226,   8.79943848,   55.5574684,           1.
    227,   11.6950331,   55.0208015,           1.
    228,   14.5585709,   54.3333282,           1.
    229,    17.382206,   53.4969292,           1.
    230,   20.1581974,   52.5139008,           1.
    231,   22.8789368,   51.3869324,           1.
    232,   25.5369663,   50.1191177,           1.
    233,       28.125,   48.7139282,           1.
    234,   30.6359463,   47.1752205,           1.
    235,   33.0629196,    45.507206,           1.
    236,   35.3992729,   43.7144585,           1.
    237,   37.6385956,   41.8018951,           1.
    238,   39.7747574,   39.7747574,           1.
    239,   41.8018951,   37.6385956,           1.
    240,   43.7144585,   35.3992729,           1.
    241,    45.507206,   33.0629196,           1.
    242,   47.1752205,   30.6359463,           1.
    243,   48.7139282,       28.125,           1.
    244,   50.1191177,   25.5369663,           1.
    245,   51.3869324,   22.8789368,           1.
    246,   52.5139008,   20.1581974,           1.
    247,   53.4969292,    17.382206,           1.
    248,   54.3333282,   14.5585709,           1.
    249,   55.0208015,   11.6950331,           1.
    250,   55.5574684,   8.79943848,           1.
    251,   55.9418564,   5.87972593,           1.
    252,   56.1729126,   2.94389749,           1.
    253,           0.,    11.541667,           1.
    254,           0.,    13.083333,           1.
    255,           0.,       14.625,           1.
    256,           0.,    16.166666,           1.
    257,           0.,    17.708334,           1.
    258,           0.,        19.25,           1.
    259,           0.,    20.791666,           1.
    260,           0.,    22.333334,           1.
    261,           0.,       23.875,           1.
    262,           0.,    25.416666,           1.
    263,           0.,    26.958334,           1.
    264,           0.,         28.5,           1.
    265,           0.,    30.041666,           1.
    266,           0.,    31.583334,           1.
    267,           0.,       33.125,           1.
    268,           0.,   34.6666679,           1.
    269,           0.,   36.2083321,           1.
    270,           0.,        37.75,           1.
    271,           0.,   39.2916679,           1.
    272,           0.,   40.8333321,           1.
    273,           0.,       42.375,           1.
    274,           0.,   43.9166679,           1.
    275,           0.,   45.4583321,           1.
    276,           0.,          47.,           1.
    277,           0.,   48.5416679,           1.
    278,           0.,   50.0833321,           1.
    279,           0.,       51.625,           1.
    280,           0.,   53.1666679,           1.
    281,           0.,   54.7083321,           1.
    282,           0.,        56.25,  0.666666687
    283,           0.,        56.25,  0.333333343
    284,           0.,   54.7083321,           0.
    285,           0.,   53.1666679,           0.
    286,           0.,       51.625,           0.
    287,           0.,   50.0833321,           0.
    288,           0.,   48.5416679,           0.
    289,           0.,          47.,           0.
    290,           0.,   45.4583321,           0.
    291,           0.,   43.9166679,           0.
    292,           0.,       42.375,           0.
    293,           0.,   40.8333321,           0.
    294,           0.,   39.2916679,           0.
    295,           0.,        37.75,           0.
    296,           0.,   36.2083321,           0.
    297,           0.,   34.6666679,           0.
    298,           0.,       33.125,           0.
    299,           0.,    31.583334,           0.
    300,           0.,    30.041666,           0.
    301,           0.,         28.5,           0.
    302,           0.,    26.958334,           0.
    303,           0.,    25.416666,           0.
    304,           0.,       23.875,           0.
    305,           0.,    22.333334,           0.
    306,           0.,    20.791666,           0.
    307,           0.,        19.25,           0.
    308,           0.,    17.708334,           0.
    309,           0.,    16.166666,           0.
    310,           0.,       14.625,           0.
    311,           0.,    13.083333,           0.
    312,           0.,    11.541667,           0.
    313,  0.520541191,   9.35570621,           0.
    314,   1.04098415,   9.32084084,           0.
    315,   1.55940485,   9.26474094,           0.
    316,   2.07430077,   9.18469715,           0.
    317,    2.5842855,   9.07989883,           0.
    318,   3.08802891,   8.95028305,           0.
    319,    3.5842309,   8.79612827,           0.
    320,   4.07159615,   8.61785603,           0.
    321,   4.54880619,   8.41593933,           0.
    322,   5.01451302,   8.19099808,           0.
    323,   5.46734047,     7.944098,           0.
    324,   5.90575409,   7.67741299,           0.
    325,   6.32362461,    7.4018364,           0.
    326,   6.69921112,   7.14493513,           0.
    327,   6.97614908,   6.95916367,           0.
    328,   7.15924454,   6.68835354,           0.
    329,   7.41089725,    6.3204689,           0.
    330,   7.68221092,   5.90874004,           0.
    331,   7.94667387,   5.47295427,           0.
    332,   8.19306755,    5.0206542,           0.
    333,   8.41779423,    4.5549078,           0.
    334,    8.6195488,    4.0775423,           0.
    335,   8.79769135,    3.5900178,           0.
    336,   8.95172405,    3.0936656,           0.
    337,   9.08120155,   2.58976984,           0.
    338,   9.18581963,   2.07961559,           0.
    339,   9.26555824,   1.56450367,           0.
    340,   9.32131577,    1.0454309,           0.
    341,   9.35565567,  0.523537397,           0.
    342,   8.73562622,  0.527811468,           0.
    343,   8.11609936,  0.538481474,           0.
    344,   7.49582481,  0.551868796,           0.
    345,   6.87457561,  0.565617561,           0.
    346,   6.25238466,  0.578563273,           0.
    347,    5.6293478,  0.590209961,           0.
    348,   5.00557137,  0.600367367,           0.
    349,   4.38115406,  0.608959258,           0.
    350,    3.7561872,  0.615937352,           0.
    351,   3.13075447,  0.621256411,           0.
    352,   2.50494146,  0.624886751,           0.
    353,   1.87883759,  0.626843691,           0.
    354,   1.25254178,   0.62722671,           0.
    355,  0.626195312,  0.626372397,           0.
    356,   8.70838165,   1.05521607,           0.
    357,   8.09548378,   1.07657766,           0.
    358,   7.48089314,   1.10308826,           0.
    359,   6.86431122,   1.13038909,           0.
    360,    6.2458353,   1.15619922,           0.
    361,   5.62566376,   1.17949069,           0.
    362,    5.0040102,     1.199844,           0.
    363,   4.38107395,   1.21708179,           0.
    364,   3.75703502,   1.23109627,           0.
    365,   3.13206387,   1.24179506,           0.
    366,   2.50633311,   1.24912333,           0.
    367,   1.88002133,   1.25311589,           0.
    368,   1.25332749,   1.25399387,           0.
    369,   0.62652874,   1.25247896,           0.
    370,   8.66261292,   1.58062267,           0.
    371,   8.05818844,   1.61300623,           0.
    372,   7.45074606,   1.65273476,           0.
    373,   6.84016514,   1.69363356,           0.
    374,   6.22669411,   1.73237419,           0.
    375,   5.61066341,   1.76740575,           0.
    376,   4.99240303,   1.79807019,           0.
    377,   4.37221384,   1.82407904,           0.
    378,   3.75036883,   1.84525847,           0.
    379,   3.12712526,    1.8614676,           0.
    380,   2.50274229,   1.87262774,           0.
    381,   1.87748814,   1.87879515,           0.
    382,   1.25165987,   1.88032532,           0.
    383,  0.625657797,   1.87834799,           0.
    384,   8.59532356,   2.10276127,           0.
    385,   8.00131035,   2.14658833,           0.
    386,   7.40269327,   2.19980025,           0.
    387,   6.79967737,   2.25450039,           0.
    388,   6.19272995,   2.30636311,           0.
    389,   5.58234072,   2.35333085,           0.
    390,   4.96896648,   2.39450908,           0.
    391,   4.35301638,   2.42949653,           0.
    392,   3.73485541,    2.4580512,           0.
    393,   3.11482835,    2.4799819,           0.
    394,   2.49328256,   2.49518657,           0.
    395,   1.87057495,   2.50374341,           0.
    396,   1.24709868,   2.50614929,           0.
    397,  0.623361707,   2.50395274,           0.
    398,   8.50523281,   2.62048054,           0.
    399,   7.92349386,   2.67620325,           0.
    400,   7.33543015,   2.74326324,           0.
    401,   6.74163675,   2.81208086,           0.
    402,   6.14283657,   2.87736154,           0.
    403,   5.53969765,   2.93655705,           0.
    404,   4.93281364,   2.98854184,           0.
    405,   4.32270193,   3.03280163,           0.
    406,   3.70982409,   3.06902599,           0.
    407,   3.09461308,   3.09697366,           0.
    408,   2.47750282,   3.11651897,           0.
    409,   1.85894084,   3.12776232,           0.
    410,   1.23941195,   3.13134456,           0.
    411,  0.619520187,   3.12923837,           0.
    412,   8.39208126,   3.13260293,           0.
    413,   7.82437134,   3.20075798,           0.
    414,   7.24856472,    3.2821207,           0.
    415,   6.66566181,   3.36546469,           0.
    416,   6.07665825,    3.4445529,           0.
    417,   5.48241043,   3.51635742,           0.
    418,   4.88365173,    3.5795269,           0.
    419,   4.28101301,   3.63343763,           0.
    420,   3.67505145,   3.67771006,           0.
    421,   3.06628823,    3.7120533,           0.
    422,   2.45524597,   3.73631811,           0.
    423,   1.84246194,   3.75062728,           0.
    424,   1.22851026,   3.75576687,           0.
    425,  0.614082396,   3.75413465,           0.
    426,   8.25605583,   3.63795161,           0.
    427,   7.70404434,   3.71916652,           0.
    428,   7.14215279,   3.81537342,           0.
    429,    6.5717864,   3.91374207,           0.
    430,    5.9942174,   4.00711298,           0.
    431,    5.4104929,   4.09199286,           0.
    432,   4.82148981,   4.16681051,           0.
    433,   4.22795296,   4.23083353,           0.
    434,   3.63053632,   4.28361654,           0.
    435,   3.02984953,    4.3248167,           0.
    436,   2.42650366,   4.35426235,           0.
    437,   1.82112539,    4.3720994,           0.
    438,   1.21437752,   4.37925863,           0.
    439,  0.607034445,   4.37856483,           0.
    440,   8.09745789,   4.13531876,           0.
    441,   7.56272411,    4.2303009,           0.
    442,   7.01634932,   4.34197903,           0.
    443,   6.46013451,   4.45595551,           0.
    444,   5.89561653,   4.56417274,           0.
    445,   5.32403374,   4.66268349,           0.
    446,   4.74640369,   4.74970007,           0.
    447,   4.16358566,   4.82438469,           0.
    448,   3.57632995,    4.8862257,           0.
    449,   2.98533607,   4.93483162,           0.
    450,   2.39130282,   4.97000694,           0.
    451,   1.79494703,   4.99191952,           0.
    452,   1.19701862,     5.001647,           0.
    453,  0.598374665,   5.00244141,           0.
    454,   7.91656971,   4.62341404,           0.
    455,   7.40056705,   4.73294115,           0.
    456,   6.87125206,    4.8608017,           0.
    457,   6.33077145,   4.99106121,           0.
    458,   5.78090763,   5.11478329,           0.
    459,   5.22307396,   5.22757292,           0.
    460,   4.65842724,   5.32743406,           0.
    461,   4.08793831,   5.41342497,           0.
    462,   3.51245499,   5.48496819,           0.
    463,   2.93276501,   5.54162312,           0.
    464,   2.34965563,   5.58317184,           0.
    465,   1.76393318,    5.6098032,           0.
    466,   1.17643535,   5.62274265,           0.
    467,   0.58810252,   5.62566948,           0.
    468,    7.7137413,   5.10082912,           0.
    469,   7.21775723,   5.22577477,           0.
    470,   6.70695925,   5.37063074,           0.
    471,   6.18375874,   5.51795197,           0.
    472,   5.65013218,   5.65793753,           0.
    473,   5.10764694,   5.78575706,           0.
    474,    4.5575881,   5.89920998,           0.
    475,   4.00103664,   5.99725151,           0.
    476,    3.4389329,   6.07924175,           0.
    477,   2.87215471,   6.14469004,           0.
    478,   2.30157709,   6.19335461,           0.
    479,   1.72809625,   6.22545052,           0.
    480,    1.1526376,   6.24234581,           0.
    481,  0.576225162,   6.24815178,           0.
    482,   7.48983383,   5.56597042,           0.
    483,   7.01484585,   5.70744991,           0.
    484,   6.52385378,   5.87029076,           0.
    485,   6.01939106,   6.03558016,           0.
    486,   5.50353575,   6.19269609,           0.
    487,   4.97796631,   6.33639574,           0.
    488,   4.44407511,   6.46428251,           0.
    489,   3.90304422,   6.57521534,           0.
    490,   3.35590696,   6.66849089,           0.
    491,   2.80362701,   6.74357176,           0.
    492,   2.24716806,   6.80019188,           0.
    493,   1.68751562,   6.83858967,           0.
    494,   1.12568295,   6.86028004,           0.
    495,  0.562774837,   6.86980247,           0.
    496,   7.24996281,   6.01572704,           0.
    497,   6.79780579,   6.17498446,           0.
    498,    6.3280468,    6.3569479,           0.
    499,   5.84353924,   6.54125881,           0.
    500,   5.34660244,   6.71653557,           0.
    501,   4.83907509,   6.87715054,           0.
    502,    4.3224678,   7.02051783,           0.
    503,   3.79806185,    7.1453948,           0.
    504,   3.26698041,   7.25100899,           0.
    505,   2.73027563,   7.33677721,           0.
    506,   2.18900037,   7.40241814,           0.
    507,   1.64423108,   7.44820309,           0.
    508,   1.09706891,   7.47578859,           0.
    509,   0.54870069,   7.49012423,           0.
    510,   7.01458168,   6.44117928,           0.
    511,    6.5902462,   6.61953878,           0.
    512,   6.14300823,   6.82262802,           0.
    513,   5.67837334,   7.02787018,           0.
    514,   5.19983768,   7.22306347,           0.
    515,   4.70968962,   7.40228415,           0.
    516,    4.2096262,   7.56280041,           0.
    517,   3.70103383,   7.70327663,           0.
    518,   3.18513107,   7.82289124,           0.
    519,   2.66306424,   7.92104387,           0.
    520,   2.13598156,   7.99748135,           0.
    521,   1.60504925,     8.052495,           0.
    522,   1.07146966,    8.0878315,           0.
    523,  0.536307335,   8.10904503,           0.
    524,   6.82108021,   6.82626343,           0.
    525,   6.42923069,   7.02966118,           0.
    526,   6.00297356,   7.25907898,           0.
    527,   5.55500555,   7.48948908,           0.
    528,   5.09146929,   7.70781088,           0.
    529,   4.61526871,   7.90832901,           0.
    530,   4.12824726,    8.0884676,           0.
    531,   3.63186598,   8.24694729,           0.
    532,   3.12742424,   8.38298607,           0.
    533,   2.61616111,   8.49604511,           0.
    534,   2.09931445,   8.58590603,           0.
    535,   1.57814252,   8.65281963,           0.
    536,   1.05391383,   8.69867897,           0.
    537,  0.527690589,   8.72835732,           0.
    538,  0.523431897,   9.98629189,  0.333333373
    539,   1.04542255,   9.94520473,  0.333333373
    540,    1.5645045,   9.87685776,  0.333333373
    541,   2.07925129,   9.78144741,  0.333333373
    542,   2.58827901,     9.659235,  0.333333373
    543,    3.0902133,   9.51055145,  0.333333373
    544,   3.58368611,   9.33580208,  0.333333373
    545,   4.06733751,   9.13546753,  0.333333373
    546,   4.53983593,   8.91010094,  0.333333373
    547,    4.9998889,   8.66031837,  0.333333373
    548,   5.44625235,   8.38679504,  0.333333373
    549,   5.87773037,    8.0902586,  0.333333373
    550,   6.29313803,   7.77151299,  0.333333373
    551,   6.69128323,   7.43146849,  0.333333373
    552,   7.07107449,   7.07106113,  0.333333373
    553,     7.431499,   6.69124985,  0.333333373
    554,   7.77154875,   6.29309368,  0.333333373
    555,   8.09026527,   5.87772083,  0.333333373
    556,   8.38677979,   5.44627619,  0.333333373
    557,    8.6602993,   4.99992228,  0.333333373
    558,   8.91008568,   4.53986549,  0.333333373
    559,   9.13545704,   4.06736135,  0.333333373
    560,    9.3357935,   3.58370733,  0.333333373
    561,   9.51054096,    3.0902431,  0.333333373
    562,   9.65922451,   2.58831477,  0.333333373
    563,   9.78144169,   2.07927704,  0.333333373
    564,   9.87685966,   1.56449294,  0.333333373
    565,    9.9452095,   1.04537046,  0.333333373
    566,   9.98629379,  0.523389161,  0.333333373
    567,  0.523410499,   9.98629284,  0.666666687
    568,   1.04537511,    9.9452095,  0.666666687
    569,     1.564448,   9.87686729,  0.666666687
    570,    2.0792048,   9.78145695,  0.666666687
    571,   2.58824897,   9.65924263,  0.666666687
    572,   3.09019756,   9.51055622,  0.666666687
    573,   3.58368373,   9.33580303,  0.666666687
    574,    4.0673461,   9.13546371,  0.666666687
    575,   4.53985929,   8.91008854,  0.666666687
    576,   4.99992609,   8.66029644,  0.666666687
    577,   5.44630051,   8.38676453,  0.666666687
    578,   5.87777472,   8.09022617,  0.666666687
    579,   6.29316235,   7.77149343,  0.666666687
    580,   6.69129038,   7.43146229,  0.666666687
    581,   7.07107115,   7.07106447,  0.666666687
    582,   7.43148279,   6.69126749,  0.666666687
    583,   7.77151871,   6.29313087,  0.666666687
    584,    8.0902319,   5.87776709,  0.666666687
    585,   8.38675404,   5.44631624,  0.666666687
    586,   8.66028309,   4.99994898,  0.666666687
    587,     8.910079,   4.53987837,  0.666666687
    588,   9.13545704,   4.06736135,  0.666666687
    589,   9.33579731,   3.58369827,  0.666666687
    590,   9.51054859,   3.09022021,  0.666666687
    591,   9.65923595,   2.58827329,  0.666666687
    592,   9.78145313,   2.07922339,  0.666666687
    593,   9.87686825,   1.56444108,  0.666666687
    594,   9.94521332,   1.04533839,  0.666666687
    595,   9.98629475,  0.523379683,  0.666666687
    596,           0.,        9.375,  0.333333343
    597,           0.,        0.625,  0.333333343
    598,           0.,         1.25,  0.333333343
    599,           0.,        1.875,  0.333333343
    600,           0.,          2.5,  0.333333343
    601,           0.,        3.125,  0.333333343
    602,           0.,         3.75,  0.333333343
    603,           0.,        4.375,  0.333333343
    604,           0.,           5.,  0.333333343
    605,           0.,        5.625,  0.333333343
    606,           0.,         6.25,  0.333333343
    607,           0.,        6.875,  0.333333343
    608,           0.,          7.5,  0.333333343
    609,           0.,        8.125,  0.333333343
    610,           0.,         8.75,  0.333333343
    611,           0.,        9.375,  0.666666687
    612,           0.,        0.625,  0.666666687
    613,           0.,         1.25,  0.666666687
    614,           0.,        1.875,  0.666666687
    615,           0.,          2.5,  0.666666687
    616,           0.,        3.125,  0.666666687
    617,           0.,         3.75,  0.666666687
    618,           0.,        4.375,  0.666666687
    619,           0.,           5.,  0.666666687
    620,           0.,        5.625,  0.666666687
    621,           0.,         6.25,  0.666666687
    622,           0.,        6.875,  0.666666687
    623,           0.,          7.5,  0.666666687
    624,           0.,        8.125,  0.666666687
    625,           0.,         8.75,  0.666666687
    626,        9.375,           0.,  0.333333343
    627,         8.75,           0.,  0.333333343
    628,        8.125,           0.,  0.333333343
    629,          7.5,           0.,  0.333333343
    630,        6.875,           0.,  0.333333343
    631,         6.25,           0.,  0.333333343
    632,        5.625,           0.,  0.333333343
    633,           5.,           0.,  0.333333343
    634,        4.375,           0.,  0.333333343
    635,         3.75,           0.,  0.333333343
    636,        3.125,           0.,  0.333333343
    637,          2.5,           0.,  0.333333343
    638,        1.875,           0.,  0.333333343
    639,         1.25,           0.,  0.333333343
    640,        0.625,           0.,  0.333333343
    641,        9.375,           0.,  0.666666687
    642,        0.625,           0.,  0.666666687
    643,         1.25,           0.,  0.666666687
    644,        1.875,           0.,  0.666666687
    645,          2.5,           0.,  0.666666687
    646,        3.125,           0.,  0.666666687
    647,         3.75,           0.,  0.666666687
    648,        4.375,           0.,  0.666666687
    649,           5.,           0.,  0.666666687
    650,        5.625,           0.,  0.666666687
    651,         6.25,           0.,  0.666666687
    652,        6.875,           0.,  0.666666687
    653,          7.5,           0.,  0.666666687
    654,        8.125,           0.,  0.666666687
    655,         8.75,           0.,  0.666666687
    656,  0.519870281,   9.35745811,           1.
    657,   1.04005384,   9.32297707,           1.
    658,    1.5584178,   9.26651001,           1.
    659,    2.0733161,   9.18604851,           1.
    660,   2.58332014,    9.0809269,           1.
    661,    3.0870986,   8.95112705,           1.
    662,   3.58336401,   8.79690266,           1.
    663,   4.07081747,     8.618577,           1.
    664,   4.54812193,   8.41646385,           1.
    665,    5.0139308,   8.19091606,           1.
    666,   5.46698332,   7.94248343,           1.
    667,   5.90622282,   7.67202616,           1.
    668,   6.32582426,   7.39360762,           1.
    669,   6.70237303,   7.13966513,           1.
    670,   6.97790861,   6.95652151,           1.
    671,   7.16194105,   6.68431234,           1.
    672,   7.41120768,   6.31650686,           1.
    673,   7.67999411,    5.9055934,           1.
    674,   7.94381952,   5.47019911,           1.
    675,   8.19011116,   5.01820707,           1.
    676,   8.41489029,   4.55275297,           1.
    677,   8.61672878,   4.07566404,           1.
    678,   8.79494858,   3.58840513,           1.
    679,   8.94905663,   3.09230757,           1.
    680,   9.07863808,   2.58866835,           1.
    681,   9.18343449,   2.07877111,           1.
    682,   9.26347256,   1.56391096,           1.
    683,    9.3196907,   1.04506636,           1.
    684,   9.35472202,  0.523364544,           1.
    685,  0.626723766,  0.626723766,           1.
    686,  0.627532482,   1.25325727,           1.
    687,  0.627027035,   1.87960768,           1.
    688,  0.624984264,   2.50572729,           1.
    689,  0.621299267,   3.13154364,           1.
    690,  0.615954876,    3.7569766,           1.
    691,   0.60897398,   4.38194799,           1.
    692,  0.600373745,   5.00637197,           1.
    693,  0.590165615,   5.63015509,           1.
    694,   0.57834959,   6.25319815,           1.
    695,  0.564937115,   6.87539625,           1.
    696,  0.550147533,   7.49657488,           1.
    697,  0.535642147,   8.11622524,           1.
    698,  0.525451183,   8.73442078,           1.
    699,   1.25325727,  0.627532482,           1.
    700,   1.25470686,   1.25470495,           1.
    701,   1.25356245,   1.88151693,           1.
    702,   1.24936628,   2.50786352,           1.
    703,   1.24191618,   3.13360167,           1.
    704,   1.23116255,   3.75857496,           1.
    705,   1.21712828,    4.3826232,           1.
    706,   1.19986296,   5.00557661,           1.
    707,   1.17937803,   5.62724829,           1.
    708,    1.1556735,   6.24743414,           1.
    709,    1.1287837,    6.8659358,           1.
    710,   1.09931517,   7.48234797,           1.
    711,   1.07093573,   8.09559441,           1.
    712,   1.05119276,   8.70565891,           1.
    713,   1.87960768,  0.627027035,           1.
    714,   1.88151693,   1.25355864,           1.
    715,    1.8795619,    1.8795619,           1.
    716,   1.87306166,   2.50487089,           1.
    717,   1.86169767,   3.12926626,           1.
    718,   1.84539175,   3.75251341,           1.
    719,   1.82417631,   4.37437391,           1.
    720,   1.79810858,   4.99459219,           1.
    721,   1.76720953,   5.61288404,           1.
    722,   1.73148489,   6.22894812,           1.
    723,   1.69098616,   6.84248877,           1.
    724,   1.64680243,   7.45284414,           1.
    725,   1.60470533,   8.05829048,           1.
    726,   1.57544088,   8.65846062,           1.
    727,   2.50572729,  0.624982357,           1.
    728,   2.50786352,   1.24936628,           1.
    729,   2.50487089,   1.87306166,           1.
    730,    2.4958396,    2.4958415,           1.
    731,   2.48034239,   3.11740446,           1.
    732,   2.45827055,   3.73743773,           1.
    733,   2.42965651,   4.35562086,           1.
    734,   2.39457464,   4.97161245,           1.
    735,   2.35305166,   5.58503675,           1.
    736,   2.30509329,    6.1954875,           1.
    737,     2.250772,    6.8025775,           1.
    738,    2.1916995,   7.40537786,           1.
    739,   2.13574934,   8.00149822,           1.
    740,   2.09670401,   8.59004402,           1.
    741,   3.13154364,  0.621301174,           1.
    742,   3.13360167,   1.24191618,           1.
    743,   3.12926626,   1.86169767,           1.
    744,   3.11740446,    2.4803443,           1.
    745,   3.09747648,   3.09747648,           1.
    746,   3.06933737,   3.71269751,           1.
    747,   3.03302908,   4.32560682,           1.
    748,   2.98863554,   4.93577147,           1.
    749,   2.93619108,   5.54272795,           1.
    750,   2.87570143,   6.14596701,           1.
    751,   2.80726194,   6.74500608,           1.
    752,   2.73301649,   7.33866262,           1.
    753,   2.66290998,    7.9238925,           1.
    754,   2.61365652,   8.49918365,           1.
    755,    3.7569766,  0.615956783,           1.
    756,   3.75857496,   1.23116255,           1.
    757,   3.75251341,   1.84538984,           1.
    758,   3.73743773,   2.45827055,           1.
    759,   3.71269751,   3.06933546,           1.
    760,   3.67811155,   3.67811155,           1.
    761,   3.63373137,   4.28411245,           1.
    762,   3.57964659,   4.88682508,           1.
    763,   3.51589918,   5.48567915,           1.
    764,   3.44250059,   6.08007383,           1.
    765,   3.35956526,   6.66943121,           1.
    766,   3.26976347,   7.25232649,           1.
    767,   3.18508101,   7.82509089,           1.
    768,   3.12506056,   8.38553238,           1.
    769,   4.38194799,  0.608977795,           1.
    770,    4.3826232,   1.21713018,           1.
    771,   4.37437582,   1.82417822,           1.
    772,   4.35562277,   2.42965841,           1.
    773,   4.32560682,   3.03302908,           1.
    774,   4.28411245,   3.63373137,           1.
    775,   4.23119688,   4.23119688,           1.
    776,   4.16696119,   4.82482481,           1.
    777,   4.09144926,    5.4139514,           1.
    778,   4.00467634,   5.99787092,           1.
    779,   3.90678358,   6.57591963,           1.
    780,   3.80095625,   7.14644194,           1.
    781,   3.70116949,   7.70514631,           1.
    782,   3.62971067,   8.24914742,           1.
    783,   5.00637197,  0.600375652,           1.
    784,   5.00557661,   1.19986296,           1.
    785,   4.99459219,   1.79811049,           1.
    786,   4.97161436,   2.39457464,           1.
    787,   4.93577337,   2.98863554,           1.
    788,   4.88682318,   3.57964659,           1.
    789,    4.8248229,   4.16695929,           1.
    790,   4.74988508,   4.74988508,           1.
    791,   4.66206121,   5.32766867,           1.
    792,   4.56137037,   5.89950132,           1.
    793,   4.44796896,   6.46462202,           1.
    794,   4.32555723,   7.02115774,           1.
    795,   4.21003294,   7.56420183,           1.
    796,     4.126369,   8.09019661,           1.
    797,   5.63015509,  0.590167522,           1.
    798,   5.62724829,   1.17937803,           1.
    799,   5.61288404,   1.76721144,           1.
    800,   5.58503866,   2.35305357,           1.
    801,   5.54272985,   2.93619108,           1.
    802,   5.48567915,   3.51589918,           1.
    803,   5.41394949,   4.09144735,           1.
    804,   5.32766676,   4.66205931,           1.
    805,   5.22689009,   5.22689009,           1.
    806,   5.11163664,   5.78502226,           1.
    807,    4.9820838,   6.33560514,           1.
    808,   4.84242773,   6.87654448,           1.
    809,   4.71044111,    7.4023385,           1.
    810,   4.61373281,   7.90884161,           1.
    811,   6.25319815,  0.578351498,           1.
    812,   6.24743414,    1.1556735,           1.
    813,   6.22894812,    1.7314887,           1.
    814,    6.1954875,    2.3050952,           1.
    815,   6.14596701,   2.87570143,           1.
    816,   6.08007193,   3.44250059,           1.
    817,   5.99787092,   4.00467634,           1.
    818,   5.89950132,   4.56137037,           1.
    819,   5.78502226,   5.11163664,           1.
    820,   5.65446043,   5.65446043,           1.
    821,    5.5080142,    6.1888957,           1.
    822,   5.35035658,   6.71263456,           1.
    823,   5.20109701,   7.21963644,           1.
    824,   5.09048796,   7.70531225,           1.
    825,   6.87539625,  0.564937115,           1.
    826,   6.86593771,    1.1287837,           1.
    827,   6.84248877,   1.69098997,           1.
    828,    6.8025775,   2.25077391,           1.
    829,   6.74500608,   2.80726194,           1.
    830,    6.6694293,   3.35956526,           1.
    831,   6.57591772,   3.90678358,           1.
    832,   6.46461821,   4.44796896,           1.
    833,   6.33560324,    4.9820838,           1.
    834,    6.1888957,    5.5080142,           1.
    835,   6.02471495,   6.02471495,           1.
    836,    5.8482089,   6.52968168,           1.
    837,   5.68081999,   7.01644659,           1.
    838,   5.55544996,   7.48010969,           1.
    839,   7.49651575,  0.550273418,           1.
    840,   7.48224878,   1.09954596,           1.
    841,   7.45272398,   1.64709044,           1.
    842,   7.40525579,   2.19200659,           1.
    843,   7.33854818,   2.73332548,           1.
    844,   7.25221968,   3.27007055,           1.
    845,   7.14633894,   3.80125761,           1.
    846,   7.02105665,   4.32584906,           1.
    847,   6.87644911,   4.84271002,           1.
    848,   6.71255064,   5.35063124,           1.
    849,   6.52962446,   5.84847403,           1.
    850,   6.33332014,   6.33355474,           1.
    851,   6.14701414,   6.79903364,           1.
    852,   6.00654745,   7.23946524,           1.
    853,   8.11582851,  0.536412716,           1.
    854,   8.09496498,   1.07223654,           1.
    855,   8.05760002,   1.60624075,           1.
    856,   8.00083065,   2.13735914,           1.
    857,   7.92327738,    2.6645236,           1.
    858,   7.82451963,   3.18666983,           1.
    859,   7.70460081,   3.70271635,           1.
    860,    7.5636754,   4.21153212,           1.
    861,   7.40185499,    4.7118907,           1.
    862,   7.21925879,   5.20249319,           1.
    863,   7.01632261,   5.68209791,           1.
    864,   6.79950094,   6.14767027,           1.
    865,   6.59513807,   6.59119558,           1.
    866,   6.43691969,   7.00613928,           1.
    867,   8.73322773,  0.527339458,           1.
    868,   8.70397091,   1.05414534,           1.
    869,   8.65672588,   1.57885313,           1.
    870,   8.58844757,   2.10022879,           1.
    871,   8.49774361,   2.61716413,           1.
    872,   8.38420868,   3.12849569,           1.
    873,    8.2478981,   3.63304663,           1.
    874,   8.08902264,   4.12959051,           1.
    875,   7.90783548,   4.61682844,           1.
    876,   7.70473623,   5.09337378,           1.
    877,    7.4807086,   5.55768919,           1.
    878,   7.24418592,   6.00558424,           1.
    879,   7.01767683,   6.42839384,           1.
    880,    6.8297267,   6.81462812,           1.
    881,    11.541667,           0.,  0.666666687
    882,    11.541667,           0.,  0.333333343
    883,    13.083333,           0.,  0.666666687
    884,    13.083333,           0.,  0.333333343
    885,       14.625,           0.,  0.666666687
    886,       14.625,           0.,  0.333333343
    887,    16.166666,           0.,  0.666666687
    888,    16.166666,           0.,  0.333333343
    889,    17.708334,           0.,  0.666666687
    890,    17.708334,           0.,  0.333333343
    891,        19.25,           0.,  0.666666687
    892,        19.25,           0.,  0.333333343
    893,    20.791666,           0.,  0.666666687
    894,    20.791666,           0.,  0.333333343
    895,    22.333334,           0.,  0.666666687
    896,    22.333334,           0.,  0.333333343
    897,       23.875,           0.,  0.666666687
    898,       23.875,           0.,  0.333333343
    899,    25.416666,           0.,  0.666666687
    900,    25.416666,           0.,  0.333333343
    901,    26.958334,           0.,  0.666666687
    902,    26.958334,           0.,  0.333333343
    903,         28.5,           0.,  0.666666687
    904,         28.5,           0.,  0.333333343
    905,    30.041666,           0.,  0.666666687
    906,    30.041666,           0.,  0.333333343
    907,    31.583334,           0.,  0.666666687
    908,    31.583334,           0.,  0.333333343
    909,       33.125,           0.,  0.666666687
    910,       33.125,           0.,  0.333333343
    911,   34.6666679,           0.,  0.666666687
    912,   34.6666679,           0.,  0.333333343
    913,   36.2083321,           0.,  0.666666687
    914,   36.2083321,           0.,  0.333333343
    915,        37.75,           0.,  0.666666687
    916,        37.75,           0.,  0.333333343
    917,   39.2916679,           0.,  0.666666687
    918,   39.2916679,           0.,  0.333333343
    919,   40.8333321,           0.,  0.666666687
    920,   40.8333321,           0.,  0.333333343
    921,       42.375,           0.,  0.666666687
    922,       42.375,           0.,  0.333333343
    923,   43.9166679,           0.,  0.666666687
    924,   43.9166679,           0.,  0.333333343
    925,   45.4583321,           0.,  0.666666687
    926,   45.4583321,           0.,  0.333333343
    927,          47.,           0.,  0.666666687
    928,          47.,           0.,  0.333333343
    929,   48.5416679,           0.,  0.666666687
    930,   48.5416679,           0.,  0.333333343
    931,   50.0833321,           0.,  0.666666687
    932,   50.0833321,           0.,  0.333333343
    933,       51.625,           0.,  0.666666687
    934,       51.625,           0.,  0.333333343
    935,   53.1666679,           0.,  0.666666687
    936,   53.1666679,           0.,  0.333333343
    937,   54.7083321,           0.,  0.666666687
    938,   54.7083321,           0.,  0.333333343
    939,           0.,    11.541667,  0.666666687
    940,           0.,    11.541667,  0.333333343
    941,           0.,    13.083333,  0.666666687
    942,           0.,    13.083333,  0.333333343
    943,           0.,       14.625,  0.666666687
    944,           0.,       14.625,  0.333333343
    945,           0.,    16.166666,  0.666666687
    946,           0.,    16.166666,  0.333333343
    947,           0.,    17.708334,  0.666666687
    948,           0.,    17.708334,  0.333333343
    949,           0.,        19.25,  0.666666687
    950,           0.,        19.25,  0.333333343
    951,           0.,    20.791666,  0.666666687
    952,           0.,    20.791666,  0.333333343
    953,           0.,    22.333334,  0.666666687
    954,           0.,    22.333334,  0.333333343
    955,           0.,       23.875,  0.666666687
    956,           0.,       23.875,  0.333333343
    957,           0.,    25.416666,  0.666666687
    958,           0.,    25.416666,  0.333333343
    959,           0.,    26.958334,  0.666666687
    960,           0.,    26.958334,  0.333333343
    961,           0.,         28.5,  0.666666687
    962,           0.,         28.5,  0.333333343
    963,           0.,    30.041666,  0.666666687
    964,           0.,    30.041666,  0.333333343
    965,           0.,    31.583334,  0.666666687
    966,           0.,    31.583334,  0.333333343
    967,           0.,       33.125,  0.666666687
    968,           0.,       33.125,  0.333333343
    969,           0.,   34.6666679,  0.666666687
    970,           0.,   34.6666679,  0.333333343
    971,           0.,   36.2083321,  0.666666687
    972,           0.,   36.2083321,  0.333333343
    973,           0.,        37.75,  0.666666687
    974,           0.,        37.75,  0.333333343
    975,           0.,   39.2916679,  0.666666687
    976,           0.,   39.2916679,  0.333333343
    977,           0.,   40.8333321,  0.666666687
    978,           0.,   40.8333321,  0.333333343
    979,           0.,       42.375,  0.666666687
    980,           0.,       42.375,  0.333333343
    981,           0.,   43.9166679,  0.666666687
    982,           0.,   43.9166679,  0.333333343
    983,           0.,   45.4583321,  0.666666687
    984,           0.,   45.4583321,  0.333333343
    985,           0.,          47.,  0.666666687
    986,           0.,          47.,  0.333333343
    987,           0.,   48.5416679,  0.666666687
    988,           0.,   48.5416679,  0.333333343
    989,           0.,   50.0833321,  0.666666687
    990,           0.,   50.0833321,  0.333333343
    991,           0.,       51.625,  0.666666687
    992,           0.,       51.625,  0.333333343
    993,           0.,   53.1666679,  0.666666687
    994,           0.,   53.1666679,  0.333333343
    995,           0.,   54.7083321,  0.666666687
    996,           0.,   54.7083321,  0.333333343
    997,   56.1729126,   2.94389749,  0.666666687
    998,   56.1729126,   2.94389749,  0.333333343
    999,   55.9418564,   5.87972593,  0.666666687
   1000,   55.9418564,   5.87972593,  0.333333343
   1001,   55.5574684,   8.79943848,  0.666666687
   1002,   55.5574684,   8.79943848,  0.333333343
   1003,   55.0208015,   11.6950331,  0.666666687
   1004,   55.0208015,   11.6950331,  0.333333343
   1005,   54.3333282,   14.5585709,  0.666666687
   1006,   54.3333282,   14.5585709,  0.333333343
   1007,   53.4969292,    17.382206,  0.666666687
   1008,   53.4969292,    17.382206,  0.333333343
   1009,   52.5139008,   20.1581974,  0.666666687
   1010,   52.5139008,   20.1581974,  0.333333343
   1011,   51.3869324,   22.8789368,  0.666666687
   1012,   51.3869324,   22.8789368,  0.333333343
   1013,   50.1191177,   25.5369663,  0.666666687
   1014,   50.1191177,   25.5369663,  0.333333343
   1015,   48.7139282,       28.125,  0.666666687
   1016,   48.7139282,       28.125,  0.333333343
   1017,   47.1752205,   30.6359463,  0.666666687
   1018,   47.1752205,   30.6359463,  0.333333343
   1019,    45.507206,   33.0629196,  0.666666687
   1020,    45.507206,   33.0629196,  0.333333343
   1021,   43.7144585,   35.3992729,  0.666666687
   1022,   43.7144585,   35.3992729,  0.333333343
   1023,   41.8018951,   37.6385956,  0.666666687
   1024,   41.8018951,   37.6385956,  0.333333343
   1025,   39.7747574,   39.7747574,  0.666666687
   1026,   39.7747574,   39.7747574,  0.333333343
   1027,   37.6385956,   41.8018951,  0.666666687
   1028,   37.6385956,   41.8018951,  0.333333343
   1029,   35.3992729,   43.7144585,  0.666666687
   1030,   35.3992729,   43.7144585,  0.333333343
   1031,   33.0629196,    45.507206,  0.666666687
   1032,   33.0629196,    45.507206,  0.333333343
   1033,   30.6359463,   47.1752205,  0.666666687
   1034,   30.6359463,   47.1752205,  0.333333343
   1035,       28.125,   48.7139282,  0.666666687
   1036,       28.125,   48.7139282,  0.333333343
   1037,   25.5369663,   50.1191177,  0.666666687
   1038,   25.5369663,   50.1191177,  0.333333343
   1039,   22.8789368,   51.3869324,  0.666666687
   1040,   22.8789368,   51.3869324,  0.333333343
   1041,   20.1581974,   52.5139008,  0.666666687
   1042,   20.1581974,   52.5139008,  0.333333343
   1043,    17.382206,   53.4969292,  0.666666687
   1044,    17.382206,   53.4969292,  0.333333343
   1045,   14.5585709,   54.3333282,  0.666666687
   1046,   14.5585709,   54.3333282,  0.333333343
   1047,   11.6950331,   55.0208015,  0.666666687
   1048,   11.6950331,   55.0208015,  0.333333343
   1049,   8.79943848,   55.5574684,  0.666666687
   1050,   8.79943848,   55.5574684,  0.333333343
   1051,   5.87972593,   55.9418564,  0.666666687
   1052,   5.87972593,   55.9418564,  0.333333343
   1053,   2.94389749,   56.1729126,  0.666666687
   1054,   2.94389749,   56.1729126,  0.333333343
   1055,   11.5258493,  0.604044199,           1.
   1056,    13.065403,  0.684728742,           1.
   1057,   14.6049566,  0.765413344,           1.
   1058,   16.1445103,  0.846097946,           1.
   1059,   17.6840649,  0.926782608,           1.
   1060,   19.2236195,   1.00746715,           1.
   1061,   20.7631721,   1.08815169,           1.
   1062,   22.3027267,   1.16883636,           1.
   1063,   23.8422794,    1.2495209,           1.
   1064,    25.381834,   1.33020556,           1.
   1065,   26.9213886,   1.41089022,           1.
   1066,   28.4609413,   1.49157476,           1.
   1067,   30.0004959,   1.57225931,           1.
   1068,   31.5400505,   1.65294397,           1.
   1069,   33.0796051,   1.73362851,           1.
   1070,   34.6191597,   1.81431317,           1.
   1071,   36.1587105,   1.89499772,           1.
   1072,   37.6982651,   1.97568238,           1.
   1073,   39.2378197,   2.05636692,           1.
   1074,   40.7773705,   2.13705158,           1.
   1075,    42.316925,   2.21773624,           1.
   1076,   43.8564835,   2.29842091,           1.
   1077,   45.3960342,   2.37910533,           1.
   1078,   46.9355888,   2.45978999,           1.
   1079,   48.4751434,   2.54047465,           1.
   1080,   50.0146942,   2.62115908,           1.
   1081,   51.5542488,   2.70184374,           1.
   1082,   53.0938034,    2.7825284,           1.
   1083,    54.633358,   2.86321282,           1.
   1084,   11.4784403,    1.2064327,           1.
   1085,   13.0116615,   1.36758065,           1.
   1086,   14.5448828,   1.52872872,           1.
   1087,    16.078104,   1.68987679,           1.
   1088,   17.6113262,   1.85102499,           1.
   1089,   19.1445465,   2.01217294,           1.
   1090,   20.6777668,   2.17332101,           1.
   1091,    22.210989,   2.33446908,           1.
   1092,   23.7442112,   2.49561715,           1.
   1093,   25.2774315,   2.65676498,           1.
   1094,   26.8106537,   2.81791329,           1.
   1095,    28.343874,   2.97906113,           1.
   1096,   29.8770943,    3.1402092,           1.
   1097,   31.4103165,   3.30135727,           1.
   1098,   32.9435387,   3.46250534,           1.
   1099,   34.4767609,   3.62365341,           1.
   1100,   36.0099792,   3.78480124,           1.
   1101,   37.5432014,   3.94594955,           1.
   1102,   39.0764236,   4.10709763,           1.
   1103,    40.609642,   4.26824522,           1.
   1104,   42.1428642,   4.42939377,           1.
   1105,   43.6760864,   4.59054184,           1.
   1106,   45.2093048,   4.75168943,           1.
   1107,   46.7425308,   4.91283798,           1.
   1108,    48.275753,   5.07398605,           1.
   1109,   49.8089714,   5.23513365,           1.
   1110,   51.3421936,   5.39628172,           1.
   1111,   52.8754158,   5.55743027,           1.
   1112,   54.4086342,   5.71857786,           1.
   1113,   11.3995695,   1.80551445,           1.
   1114,   12.9222555,   2.04668427,           1.
   1115,   14.4449415,   2.28785396,           1.
   1116,   15.9676275,   2.52902365,           1.
   1117,   17.4903145,   2.77019382,           1.
   1118,   19.0130005,   3.01136351,           1.
   1119,   20.5356865,    3.2525332,           1.
   1120,   22.0583744,   3.49370313,           1.
   1121,   23.5810585,   3.73487282,           1.
   1122,   25.1037445,   3.97604251,           1.
   1123,   26.6264324,   4.21721268,           1.
   1124,   28.1491184,   4.45838213,           1.
   1125,   29.6718025,   4.69955206,           1.
   1126,   31.1944904,   4.94072199,           1.
   1127,   32.7171745,   5.18189144,           1.
   1128,   34.2398643,   5.42306185,           1.
   1129,   35.7625465,   5.66423082,           1.
   1130,   37.2852364,   5.90540123,           1.
   1131,   38.8079224,   6.14657116,           1.
   1132,   40.3306046,   6.38774061,           1.
   1133,   41.8532944,   6.62891054,           1.
   1134,   43.3759804,   6.87008047,           1.
   1135,   44.8986664,   7.11124992,           1.
   1136,   46.4213524,   7.35241985,           1.
   1137,   47.9440384,   7.59358978,           1.
   1138,   49.4667244,   7.83475924,           1.
   1139,   50.9894104,   8.07592964,           1.
   1140,   52.5120964,   8.31709957,           1.
   1141,   54.0347824,   8.55826855,           1.
   1142,   11.2894535,   2.39964747,           1.
   1143,    12.797431,   2.72017789,           1.
   1144,   14.3054085,   3.04070854,           1.
   1145,    15.813386,   3.36123896,           1.
   1146,   17.3213634,   3.68176961,           1.
   1147,   18.8293419,   4.00230026,           1.
   1148,   20.3373184,   4.32283068,           1.
   1149,   21.8452969,   4.64336109,           1.
   1150,   23.3532734,   4.96389151,           1.
   1151,   24.8612518,   5.28442192,           1.
   1152,   26.3692303,   5.60495281,           1.
   1153,   27.8772068,   5.92548323,           1.
   1154,   29.3851833,   6.24601364,           1.
   1155,   30.8931618,   6.56654453,           1.
   1156,   32.4011383,   6.88707495,           1.
   1157,   33.9091187,   7.20760536,           1.
   1158,   35.4170914,   7.52813578,           1.
   1159,   36.9250717,   7.84866619,           1.
   1160,   38.4330521,   8.16919708,           1.
   1161,   39.9410248,   8.48972702,           1.
   1162,   41.4490051,   8.81025791,           1.
   1163,   42.9569817,    9.1307888,           1.
   1164,   44.4649582,   9.45131874,           1.
   1165,   45.9729385,   9.77184963,           1.
   1166,   47.4809151,   10.0923805,           1.
   1167,   48.9888916,   10.4129105,           1.
   1168,   50.4968681,   10.7334414,           1.
   1169,   52.0048485,   11.0539722,           1.
   1170,    53.512825,   11.3745022,           1.
   1171,   11.1483946,   2.98720312,           1.
   1172,   12.6375294,   3.38621569,           1.
   1173,   14.1266651,   3.78522849,           1.
   1174,   15.6157999,   4.18424129,           1.
   1175,   17.1049366,   4.58325386,           1.
   1176,   18.5940723,   4.98226643,           1.
   1177,   20.0832081,   5.38127899,           1.
   1178,   21.5723438,   5.78029203,           1.
   1179,   23.0614796,    6.1793046,           1.
   1180,   24.5506134,   6.57831717,           1.
   1181,   26.0397511,   6.97733021,           1.
   1182,   27.5288868,   7.37634277,           1.
   1183,   29.0180206,   7.77535534,           1.
   1184,   30.5071583,    8.1743679,           1.
   1185,   31.9962921,   8.57338047,           1.
   1186,   33.4854317,   8.97239399,           1.
   1187,   34.9745636,    9.3714056,           1.
   1188,   36.4636993,   9.77041912,           1.
   1189,   37.9528351,   10.1694317,           1.
   1190,   39.4419708,   10.5684443,           1.
   1191,   40.9311066,   10.9674568,           1.
   1192,   42.4202423,   11.3664703,           1.
   1193,   43.9093781,   11.7654819,           1.
   1194,   45.3985138,   12.1644955,           1.
   1195,   46.8876495,    12.563508,           1.
   1196,   48.3767853,   12.9625206,           1.
   1197,    49.865921,   13.3615332,           1.
   1198,   51.3550568,   13.7605467,           1.
   1199,   52.8441925,   14.1595583,           1.
   1200,    10.976778,   3.56657124,           1.
   1201,   12.4429893,   4.04297209,           1.
   1202,   13.9092016,   4.51937342,           1.
   1203,   15.3754129,   4.99577475,           1.
   1204,   16.8416271,   5.47217607,           1.
   1205,   18.3078384,   5.94857693,           1.
   1206,   19.7740498,   6.42497826,           1.
   1207,    21.240263,   6.90137959,           1.
   1208,   22.7064743,   7.37778091,           1.
   1209,   24.1726856,   7.85418177,           1.
   1210,   25.6388988,   8.33058357,           1.
   1211,   27.1051102,   8.80698395,           1.
   1212,   28.5713215,   9.28338528,           1.
   1213,   30.0375347,   9.75978661,           1.
   1214,   31.5037479,   10.2361879,           1.
   1215,   32.9699593,   10.7125893,           1.
   1216,   34.4361687,   11.1889896,           1.
   1217,   35.9023819,   11.6653919,           1.
   1218,   37.3685951,   12.1417933,           1.
   1219,   38.8348083,   12.6181936,           1.
   1220,   40.3010216,    13.094595,           1.
   1221,   41.7672348,   13.5709963,           1.
   1222,   43.2334442,   14.0473976,           1.
   1223,   44.6996574,   14.5237989,           1.
   1224,   46.1658707,   15.0002003,           1.
   1225,   47.6320801,   15.4766006,           1.
   1226,   49.0982933,    15.953002,           1.
   1227,   50.5645065,   16.4294033,           1.
   1228,   52.0307159,   16.9058037,           1.
   1229,    10.775074,   4.13616371,           1.
   1230,    12.214344,   4.68864727,           1.
   1231,    13.653614,   5.24113131,           1.
   1232,   15.0928831,   5.79361486,           1.
   1233,   16.5321541,   6.34609938,           1.
   1234,   17.9714241,   6.89858294,           1.
   1235,   19.4106922,   7.45106649,           1.
   1236,   20.8499641,   8.00355148,           1.
   1237,   22.2892323,   8.55603504,           1.
   1238,   23.7285023,    9.1085186,           1.
   1239,   25.1677723,   9.66100311,           1.
   1240,   26.6070423,   10.2134867,           1.
   1241,   28.0463123,   10.7659702,           1.
   1242,   29.4855824,   11.3184547,           1.
   1243,   30.9248524,   11.8709383,           1.
   1244,   32.3641243,   12.4234228,           1.
   1245,   33.8033905,   12.9759054,           1.
   1246,   35.2426605,   13.5283899,           1.
   1247,   36.6819305,   14.0808744,           1.
   1248,   38.1212006,    14.633357,           1.
   1249,   39.5604706,   15.1858416,           1.
   1250,   40.9997406,   15.7383261,           1.
   1251,   42.4390106,   16.2908096,           1.
   1252,   43.8782806,   16.8432941,           1.
   1253,   45.3175507,   17.3957787,           1.
   1254,   46.7568169,   17.9482613,           1.
   1255,   48.1960907,   18.5007458,           1.
   1256,   49.6353607,   19.0532303,           1.
   1257,   51.0746269,   19.6057129,           1.
   1258,   10.5438375,   4.69441891,           1.
   1259,    11.952219,   5.32147074,           1.
   1260,   13.3606024,   5.94852352,           1.
   1261,   14.7689838,   6.57557535,           1.
   1262,   16.1773682,   7.20262814,           1.
   1263,   17.5857506,   7.82968044,           1.
   1264,    18.994133,   8.45673275,           1.
   1265,   20.4025154,   9.08378506,           1.
   1266,   21.8108978,   9.71083736,           1.
   1267,   23.2192802,   10.3378897,           1.
   1268,   24.6276627,    10.964942,           1.
   1269,   26.0360451,   11.5919943,           1.
   1270,   27.4444275,   12.2190466,           1.
   1271,   28.8528118,   12.8460989,           1.
   1272,   30.2611942,   13.4731512,           1.
   1273,   31.6695766,   14.1002045,           1.
   1274,   33.0779572,   14.7272558,           1.
   1275,   34.4863396,   15.3543081,           1.
   1276,   35.8947258,   15.9813614,           1.
   1277,   37.3031044,   16.6084118,           1.
   1278,   38.7114906,    17.235466,           1.
   1279,    40.119873,   17.8625183,           1.
   1280,   41.5282516,   18.4895687,           1.
   1281,   42.9366379,   19.1166229,           1.
   1282,   44.3450203,   19.7436752,           1.
   1283,   45.7533989,   20.3707256,           1.
   1284,   47.1617851,   20.9977798,           1.
   1285,   48.5701675,   21.6248322,           1.
   1286,     49.97855,   22.2518826,           1.
   1287,   10.2837009,   5.23980713,           1.
   1288,   11.6573353,   5.93970871,           1.
   1289,   13.0309706,   6.63961124,           1.
   1290,   14.4046049,   7.33951283,           1.
   1291,   15.7782412,   8.03941536,           1.
   1292,   17.1518764,   8.73931694,           1.
   1293,   18.5255108,   9.43921852,           1.
   1294,    19.899147,   10.1391211,           1.
   1295,   21.2727814,   10.8390236,           1.
   1296,   22.6464157,   11.5389252,           1.
   1297,    24.020052,   12.2388277,           1.
   1298,   25.3936863,   12.9387293,           1.
   1299,   26.7673206,   13.6386309,           1.
   1300,   28.1409569,   14.3385334,           1.
   1301,   29.5145912,    15.038435,           1.
   1302,   30.8882275,   15.7383375,           1.
   1303,   32.2618599,   16.4382381,           1.
   1304,    33.635498,   17.1381416,           1.
   1305,   35.0091324,   17.8380432,           1.
   1306,   36.3827667,   18.5379448,           1.
   1307,   37.7564011,   19.2378483,           1.
   1308,   39.1300392,   19.9377499,           1.
   1309,   40.5036697,   20.6376514,           1.
   1310,   41.8773079,    21.337553,           1.
   1311,   43.2509422,   22.0374565,           1.
   1312,   44.6245766,   22.7373562,           1.
   1313,   45.9982109,   23.4372597,           1.
   1314,   47.3718491,   24.1371613,           1.
   1315,   48.7454796,   24.8370628,           1.
   1316,   9.99537659,   5.77083349,           1.
   1317,   11.3304987,   6.54166651,           1.
   1318,   12.6656218,       7.3125,           1.
   1319,   14.0007439,   8.08333302,           1.
   1320,   15.3358669,   8.85416698,           1.
   1321,   16.6709881,        9.625,           1.
   1322,   18.0061111,    10.395833,           1.
   1323,   19.3412342,    11.166667,           1.
   1324,   20.6763573,      11.9375,           1.
   1325,   22.0114784,    12.708333,           1.
   1326,   23.3466015,    13.479167,           1.
   1327,   24.6817245,        14.25,           1.
   1328,   26.0168457,    15.020833,           1.
   1329,   27.3519688,    15.791667,           1.
   1330,   28.6870918,      16.5625,           1.
   1331,   30.0222149,    17.333334,           1.
   1332,    31.357336,    18.104166,           1.
   1333,   32.6924591,       18.875,           1.
   1334,   34.0275841,    19.645834,           1.
   1335,   35.3627014,    20.416666,           1.
   1336,   36.6978264,      21.1875,           1.
   1337,   38.0329514,    21.958334,           1.
   1338,   39.3680687,    22.729166,           1.
   1339,   40.7031937,         23.5,           1.
   1340,   42.0383186,    24.270834,           1.
   1341,    43.373436,    25.041666,           1.
   1342,   44.7085609,      25.8125,           1.
   1343,   46.0436859,    26.583334,           1.
   1344,   47.3788071,    27.354166,           1.
   1345,   9.67965603,   6.28604221,           1.
   1346,   10.9726067,    7.1256938,           1.
   1347,   12.2655573,   7.96534586,           1.
   1348,    13.558507,   8.80499744,           1.
   1349,   14.8514585,   9.64464951,           1.
   1350,   16.1444092,   10.4843016,           1.
   1351,   17.4373589,   11.3239527,           1.
   1352,   18.7303104,   12.1636057,           1.
   1353,   20.0232601,   13.0032568,           1.
   1354,   21.3162098,   13.8429089,           1.
   1355,   22.6091614,   14.6825609,           1.
   1356,   23.9021111,    15.522212,           1.
   1357,   25.1950607,   16.3618641,           1.
   1358,   26.4880123,   17.2015171,           1.
   1359,    27.780962,   18.0411682,           1.
   1360,   29.0739136,   18.8808212,           1.
   1361,   30.3668633,   19.7204704,           1.
   1362,   31.6598148,   20.5601234,           1.
   1363,   32.9527664,   21.3997765,           1.
   1364,   34.2457123,   22.2394257,           1.
   1365,   35.5386658,   23.0790787,           1.
   1366,   36.8316154,   23.9187317,           1.
   1367,   38.1245651,   24.7583828,           1.
   1368,   39.4175148,   25.5980339,           1.
   1369,   40.7104683,   26.4376869,           1.
   1370,    42.003418,    27.277338,           1.
   1371,   43.2963676,    28.116991,           1.
   1372,   44.5893211,   28.9566422,           1.
   1373,    45.882267,   29.7962933,           1.
   1374,    9.3374052,   6.78402185,           1.
   1375,   10.5846386,   7.69019032,           1.
   1376,   11.8318739,   8.59635925,           1.
   1377,   13.0791073,   9.50252819,           1.
   1378,   14.3263435,   10.4086971,           1.
   1379,   15.5735769,   11.3148661,           1.
   1380,   16.8208103,    12.221035,           1.
   1381,   18.0680466,   13.1272039,           1.
   1382,   19.3152809,   14.0333729,           1.
   1383,   20.5625153,   14.9395418,           1.
   1384,   21.8097496,   15.8457108,           1.
   1385,   23.0569839,   16.7518787,           1.
   1386,   24.3042183,   17.6580486,           1.
   1387,   25.5514545,   18.5642185,           1.
   1388,   26.7986889,   19.4703865,           1.
   1389,   28.0459232,   20.3765564,           1.
   1390,   29.2931557,   21.2827244,           1.
   1391,   30.5403919,   22.1888924,           1.
   1392,   31.7876263,   23.0950623,           1.
   1393,   33.0348587,   24.0012302,           1.
   1394,   34.2820969,   24.9074001,           1.
   1395,   35.5293312,     25.81357,           1.
   1396,   36.7765617,    26.719738,           1.
   1397,   38.0237999,    27.625906,           1.
   1398,   39.2710342,   28.5320759,           1.
   1399,   40.5182686,   29.4382439,           1.
   1400,   41.7655029,   30.3444138,           1.
   1401,   43.0127373,   31.2505836,           1.
   1402,   44.2599716,   32.1567497,           1.
   1403,   8.96955967,   7.26340628,           1.
   1404,   10.1676598,   8.23360825,           1.
   1405,   11.3657598,   9.20381069,           1.
   1406,    12.563859,   10.1740122,           1.
   1407,     13.76196,   11.1442156,           1.
   1408,   14.9600601,   12.1144171,           1.
   1409,   16.1581593,   13.0846195,           1.
   1410,   17.3562603,   14.0548229,           1.
   1411,   18.5543594,   15.0250244,           1.
   1412,   19.7524586,   15.9952259,           1.
   1413,   20.9505596,   16.9654293,           1.
   1414,   22.1486607,   17.9356308,           1.
   1415,   23.3467598,   18.9058323,           1.
   1416,   24.5448608,   19.8760357,           1.
   1417,     25.74296,   20.8462372,           1.
   1418,    26.941061,   21.8164406,           1.
   1419,   28.1391582,   22.7866421,           1.
   1420,   29.3372593,   23.7568455,           1.
   1421,   30.5353603,    24.727047,           1.
   1422,   31.7334595,   25.6972485,           1.
   1423,   32.9315605,   26.6674519,           1.
   1424,   34.1296616,   27.6376553,           1.
   1425,   35.3277588,   28.6078548,           1.
   1426,   36.5258598,   29.5780582,           1.
   1427,   37.7239609,   30.5482616,           1.
   1428,   38.9220581,   31.5184612,           1.
   1429,   40.1201591,   32.4886665,           1.
   1430,   41.3182602,   33.4588699,           1.
   1431,   42.5163574,   34.4290695,           1.
   1432,   8.57713032,   7.72288275,           1.
   1433,    9.7228117,   8.75445843,           1.
   1434,   10.8684931,   9.78603554,           1.
   1435,   12.0141745,   10.8176107,           1.
   1436,   13.1598568,   11.8491879,           1.
   1437,   14.3055382,    12.880764,           1.
   1438,   15.4512186,   13.9123402,           1.
   1439,   16.5969009,   14.9439173,           1.
   1440,   17.7425823,   15.9754934,           1.
   1441,   18.8882637,   17.0070686,           1.
   1442,    20.033947,   18.0386467,           1.
   1443,   21.1796284,   19.0702229,           1.
   1444,   22.3253078,    20.101799,           1.
   1445,   23.4709911,   21.1333752,           1.
   1446,   24.6166725,   22.1649513,           1.
   1447,   25.7623558,   23.1965294,           1.
   1448,   26.9080353,   24.2281036,           1.
   1449,   28.0537167,   25.2596798,           1.
   1450,   29.1993999,   26.2912579,           1.
   1451,   30.3450794,   27.3228321,           1.
   1452,   31.4907627,   28.3544102,           1.
   1453,   32.6364441,   29.3859863,           1.
   1454,   33.7821236,   30.4175606,           1.
   1455,   34.9278069,   31.4491386,           1.
   1456,   36.0734901,   32.4807167,           1.
   1457,   37.2191696,    33.512291,           1.
   1458,   38.3648529,    34.543869,           1.
   1459,   39.5105324,   35.5754433,           1.
   1460,   40.6562157,   36.6070175,           1.
   1461,   8.16119099,   8.16119099,           1.
   1462,   9.25131321,   9.25131321,           1.
   1463,   10.3414364,   10.3414364,           1.
   1464,   11.4315596,   11.4315596,           1.
   1465,   12.5216827,   12.5216827,           1.
   1466,   13.6118059,   13.6118059,           1.
   1467,   14.7019281,   14.7019281,           1.
   1468,   15.7920523,   15.7920523,           1.
   1469,   16.8821735,   16.8821735,           1.
   1470,   17.9722977,   17.9722977,           1.
   1471,   19.0624199,   19.0624199,           1.
   1472,    20.152544,    20.152544,           1.
   1473,   21.2426662,   21.2426662,           1.
   1474,   22.3327904,   22.3327904,           1.
   1475,   23.4229126,   23.4229126,           1.
   1476,   24.5130367,   24.5130367,           1.
   1477,    25.603157,    25.603157,           1.
   1478,   26.6932812,   26.6932812,           1.
   1479,   27.7834053,   27.7834053,           1.
   1480,   28.8735256,   28.8735256,           1.
   1481,   29.9636497,   29.9636497,           1.
   1482,   31.0537739,   31.0537739,           1.
   1483,   32.1438942,   32.1438942,           1.
   1484,   33.2340202,   33.2340202,           1.
   1485,   34.3241425,   34.3241425,           1.
   1486,   35.4142647,   35.4142647,           1.
   1487,   36.5043869,   36.5043869,           1.
   1488,   37.5945129,   37.5945129,           1.
   1489,   38.6846313,   38.6846313,           1.
   1490,   7.72288275,   8.57713032,           1.
   1491,   8.75445843,    9.7228117,           1.
   1492,   9.78603554,   10.8684931,           1.
   1493,   10.8176107,   12.0141745,           1.
   1494,   11.8491879,   13.1598568,           1.
   1495,    12.880764,   14.3055382,           1.
   1496,   13.9123402,   15.4512186,           1.
   1497,   14.9439173,   16.5969009,           1.
   1498,   15.9754934,   17.7425823,           1.
   1499,   17.0070686,   18.8882637,           1.
   1500,   18.0386467,    20.033947,           1.
   1501,   19.0702229,   21.1796284,           1.
   1502,    20.101799,   22.3253078,           1.
   1503,   21.1333752,   23.4709911,           1.
   1504,   22.1649513,   24.6166725,           1.
   1505,   23.1965294,   25.7623558,           1.
   1506,   24.2281036,   26.9080353,           1.
   1507,   25.2596798,   28.0537167,           1.
   1508,   26.2912579,   29.1993999,           1.
   1509,   27.3228321,   30.3450794,           1.
   1510,   28.3544102,   31.4907627,           1.
   1511,   29.3859863,   32.6364441,           1.
   1512,   30.4175606,   33.7821236,           1.
   1513,   31.4491386,   34.9278069,           1.
   1514,   32.4807167,   36.0734901,           1.
   1515,    33.512291,   37.2191696,           1.
   1516,    34.543869,   38.3648529,           1.
   1517,   35.5754433,   39.5105324,           1.
   1518,   36.6070175,   40.6562157,           1.
   1519,   7.26340628,   8.96955967,           1.
   1520,   8.23360825,   10.1676598,           1.
   1521,   9.20381069,   11.3657598,           1.
   1522,   10.1740122,    12.563859,           1.
   1523,   11.1442156,     13.76196,           1.
   1524,   12.1144171,   14.9600601,           1.
   1525,   13.0846195,   16.1581593,           1.
   1526,   14.0548229,   17.3562603,           1.
   1527,   15.0250244,   18.5543594,           1.
   1528,   15.9952259,   19.7524586,           1.
   1529,   16.9654293,   20.9505596,           1.
   1530,   17.9356308,   22.1486607,           1.
   1531,   18.9058323,   23.3467598,           1.
   1532,   19.8760357,   24.5448608,           1.
   1533,   20.8462372,     25.74296,           1.
   1534,   21.8164406,    26.941061,           1.
   1535,   22.7866421,   28.1391582,           1.
   1536,   23.7568455,   29.3372593,           1.
   1537,    24.727047,   30.5353603,           1.
   1538,   25.6972485,   31.7334595,           1.
   1539,   26.6674519,   32.9315605,           1.
   1540,   27.6376553,   34.1296616,           1.
   1541,   28.6078548,   35.3277588,           1.
   1542,   29.5780582,   36.5258598,           1.
   1543,   30.5482616,   37.7239609,           1.
   1544,   31.5184612,   38.9220581,           1.
   1545,   32.4886665,   40.1201591,           1.
   1546,   33.4588699,   41.3182602,           1.
   1547,   34.4290695,   42.5163574,           1.
   1548,   6.78402185,    9.3374052,           1.
   1549,   7.69019032,   10.5846386,           1.
   1550,   8.59635925,   11.8318739,           1.
   1551,   9.50252819,   13.0791073,           1.
   1552,   10.4086971,   14.3263435,           1.
   1553,   11.3148661,   15.5735769,           1.
   1554,    12.221035,   16.8208103,           1.
   1555,   13.1272039,   18.0680466,           1.
   1556,   14.0333729,   19.3152809,           1.
   1557,   14.9395418,   20.5625153,           1.
   1558,   15.8457108,   21.8097496,           1.
   1559,   16.7518787,   23.0569839,           1.
   1560,   17.6580486,   24.3042183,           1.
   1561,   18.5642185,   25.5514545,           1.
   1562,   19.4703865,   26.7986889,           1.
   1563,   20.3765564,   28.0459232,           1.
   1564,   21.2827244,   29.2931557,           1.
   1565,   22.1888924,   30.5403919,           1.
   1566,   23.0950623,   31.7876263,           1.
   1567,   24.0012302,   33.0348587,           1.
   1568,   24.9074001,   34.2820969,           1.
   1569,     25.81357,   35.5293312,           1.
   1570,    26.719738,   36.7765617,           1.
   1571,    27.625906,   38.0237999,           1.
   1572,   28.5320759,   39.2710342,           1.
   1573,   29.4382439,   40.5182686,           1.
   1574,   30.3444138,   41.7655029,           1.
   1575,   31.2505836,   43.0127373,           1.
   1576,   32.1567497,   44.2599716,           1.
   1577,   6.28604221,   9.67965603,           1.
   1578,    7.1256938,   10.9726067,           1.
   1579,   7.96534586,   12.2655573,           1.
   1580,   8.80499744,    13.558507,           1.
   1581,   9.64464951,   14.8514585,           1.
   1582,   10.4843016,   16.1444092,           1.
   1583,   11.3239527,   17.4373589,           1.
   1584,   12.1636057,   18.7303104,           1.
   1585,   13.0032568,   20.0232601,           1.
   1586,   13.8429089,   21.3162098,           1.
   1587,   14.6825609,   22.6091614,           1.
   1588,    15.522212,   23.9021111,           1.
   1589,   16.3618641,   25.1950607,           1.
   1590,   17.2015171,   26.4880123,           1.
   1591,   18.0411682,    27.780962,           1.
   1592,   18.8808212,   29.0739136,           1.
   1593,   19.7204704,   30.3668633,           1.
   1594,   20.5601234,   31.6598148,           1.
   1595,   21.3997765,   32.9527664,           1.
   1596,   22.2394257,   34.2457123,           1.
   1597,   23.0790787,   35.5386658,           1.
   1598,   23.9187317,   36.8316154,           1.
   1599,   24.7583828,   38.1245651,           1.
   1600,   25.5980339,   39.4175148,           1.
   1601,   26.4376869,   40.7104683,           1.
   1602,    27.277338,    42.003418,           1.
   1603,    28.116991,   43.2963676,           1.
   1604,   28.9566422,   44.5893211,           1.
   1605,   29.7962933,    45.882267,           1.
   1606,   5.77083349,   9.99537659,           1.
   1607,   6.54166651,   11.3304987,           1.
   1608,       7.3125,   12.6656218,           1.
   1609,   8.08333302,   14.0007439,           1.
   1610,   8.85416698,   15.3358669,           1.
   1611,        9.625,   16.6709881,           1.
   1612,    10.395833,   18.0061111,           1.
   1613,    11.166667,   19.3412342,           1.
   1614,      11.9375,   20.6763573,           1.
   1615,    12.708333,   22.0114784,           1.
   1616,    13.479167,   23.3466015,           1.
   1617,        14.25,   24.6817245,           1.
   1618,    15.020833,   26.0168457,           1.
   1619,    15.791667,   27.3519688,           1.
   1620,      16.5625,   28.6870918,           1.
   1621,    17.333334,   30.0222149,           1.
   1622,    18.104166,    31.357336,           1.
   1623,       18.875,   32.6924591,           1.
   1624,    19.645834,   34.0275841,           1.
   1625,    20.416666,   35.3627014,           1.
   1626,      21.1875,   36.6978264,           1.
   1627,    21.958334,   38.0329514,           1.
   1628,    22.729166,   39.3680687,           1.
   1629,         23.5,   40.7031937,           1.
   1630,    24.270834,   42.0383186,           1.
   1631,    25.041666,    43.373436,           1.
   1632,      25.8125,   44.7085609,           1.
   1633,    26.583334,   46.0436859,           1.
   1634,    27.354166,   47.3788071,           1.
   1635,   5.23980713,   10.2837009,           1.
   1636,   5.93970871,   11.6573353,           1.
   1637,   6.63961124,   13.0309706,           1.
   1638,   7.33951283,   14.4046049,           1.
   1639,   8.03941536,   15.7782412,           1.
   1640,   8.73931694,   17.1518764,           1.
   1641,   9.43921852,   18.5255108,           1.
   1642,   10.1391211,    19.899147,           1.
   1643,   10.8390236,   21.2727814,           1.
   1644,   11.5389252,   22.6464157,           1.
   1645,   12.2388277,    24.020052,           1.
   1646,   12.9387293,   25.3936863,           1.
   1647,   13.6386309,   26.7673206,           1.
   1648,   14.3385334,   28.1409569,           1.
   1649,    15.038435,   29.5145912,           1.
   1650,   15.7383375,   30.8882275,           1.
   1651,   16.4382381,   32.2618599,           1.
   1652,   17.1381416,    33.635498,           1.
   1653,   17.8380432,   35.0091324,           1.
   1654,   18.5379448,   36.3827667,           1.
   1655,   19.2378483,   37.7564011,           1.
   1656,   19.9377499,   39.1300392,           1.
   1657,   20.6376514,   40.5036697,           1.
   1658,    21.337553,   41.8773079,           1.
   1659,   22.0374565,   43.2509422,           1.
   1660,   22.7373562,   44.6245766,           1.
   1661,   23.4372597,   45.9982109,           1.
   1662,   24.1371613,   47.3718491,           1.
   1663,   24.8370628,   48.7454796,           1.
   1664,   4.69441891,   10.5438375,           1.
   1665,   5.32147074,    11.952219,           1.
   1666,   5.94852352,   13.3606024,           1.
   1667,   6.57557535,   14.7689838,           1.
   1668,   7.20262814,   16.1773682,           1.
   1669,   7.82968044,   17.5857506,           1.
   1670,   8.45673275,    18.994133,           1.
   1671,   9.08378506,   20.4025154,           1.
   1672,   9.71083736,   21.8108978,           1.
   1673,   10.3378897,   23.2192802,           1.
   1674,    10.964942,   24.6276627,           1.
   1675,   11.5919943,   26.0360451,           1.
   1676,   12.2190466,   27.4444275,           1.
   1677,   12.8460989,   28.8528118,           1.
   1678,   13.4731512,   30.2611942,           1.
   1679,   14.1002045,   31.6695766,           1.
   1680,   14.7272558,   33.0779572,           1.
   1681,   15.3543081,   34.4863396,           1.
   1682,   15.9813614,   35.8947258,           1.
   1683,   16.6084118,   37.3031044,           1.
   1684,    17.235466,   38.7114906,           1.
   1685,   17.8625183,    40.119873,           1.
   1686,   18.4895687,   41.5282516,           1.
   1687,   19.1166229,   42.9366379,           1.
   1688,   19.7436752,   44.3450203,           1.
   1689,   20.3707256,   45.7533989,           1.
   1690,   20.9977798,   47.1617851,           1.
   1691,   21.6248322,   48.5701675,           1.
   1692,   22.2518826,     49.97855,           1.
   1693,   4.13616371,    10.775074,           1.
   1694,   4.68864727,    12.214344,           1.
   1695,   5.24113131,    13.653614,           1.
   1696,   5.79361486,   15.0928831,           1.
   1697,   6.34609938,   16.5321541,           1.
   1698,   6.89858294,   17.9714241,           1.
   1699,   7.45106649,   19.4106922,           1.
   1700,   8.00355148,   20.8499641,           1.
   1701,   8.55603504,   22.2892323,           1.
   1702,    9.1085186,   23.7285023,           1.
   1703,   9.66100311,   25.1677723,           1.
   1704,   10.2134867,   26.6070423,           1.
   1705,   10.7659702,   28.0463123,           1.
   1706,   11.3184547,   29.4855824,           1.
   1707,   11.8709383,   30.9248524,           1.
   1708,   12.4234228,   32.3641243,           1.
   1709,   12.9759054,   33.8033905,           1.
   1710,   13.5283899,   35.2426605,           1.
   1711,   14.0808744,   36.6819305,           1.
   1712,    14.633357,   38.1212006,           1.
   1713,   15.1858416,   39.5604706,           1.
   1714,   15.7383261,   40.9997406,           1.
   1715,   16.2908096,   42.4390106,           1.
   1716,   16.8432941,   43.8782806,           1.
   1717,   17.3957787,   45.3175507,           1.
   1718,   17.9482613,   46.7568169,           1.
   1719,   18.5007458,   48.1960907,           1.
   1720,   19.0532303,   49.6353607,           1.
   1721,   19.6057129,   51.0746269,           1.
   1722,   3.56657124,    10.976778,           1.
   1723,   4.04297209,   12.4429893,           1.
   1724,   4.51937342,   13.9092016,           1.
   1725,   4.99577475,   15.3754129,           1.
   1726,   5.47217607,   16.8416271,           1.
   1727,   5.94857693,   18.3078384,           1.
   1728,   6.42497826,   19.7740498,           1.
   1729,   6.90137959,    21.240263,           1.
   1730,   7.37778091,   22.7064743,           1.
   1731,   7.85418177,   24.1726856,           1.
   1732,   8.33058357,   25.6388988,           1.
   1733,   8.80698395,   27.1051102,           1.
   1734,   9.28338528,   28.5713215,           1.
   1735,   9.75978661,   30.0375347,           1.
   1736,   10.2361879,   31.5037479,           1.
   1737,   10.7125893,   32.9699593,           1.
   1738,   11.1889896,   34.4361687,           1.
   1739,   11.6653919,   35.9023819,           1.
   1740,   12.1417933,   37.3685951,           1.
   1741,   12.6181936,   38.8348083,           1.
   1742,    13.094595,   40.3010216,           1.
   1743,   13.5709963,   41.7672348,           1.
   1744,   14.0473976,   43.2334442,           1.
   1745,   14.5237989,   44.6996574,           1.
   1746,   15.0002003,   46.1658707,           1.
   1747,   15.4766006,   47.6320801,           1.
   1748,    15.953002,   49.0982933,           1.
   1749,   16.4294033,   50.5645065,           1.
   1750,   16.9058037,   52.0307159,           1.
   1751,   2.98720312,   11.1483946,           1.
   1752,   3.38621569,   12.6375294,           1.
   1753,   3.78522849,   14.1266651,           1.
   1754,   4.18424129,   15.6157999,           1.
   1755,   4.58325386,   17.1049366,           1.
   1756,   4.98226643,   18.5940723,           1.
   1757,   5.38127899,   20.0832081,           1.
   1758,   5.78029203,   21.5723438,           1.
   1759,    6.1793046,   23.0614796,           1.
   1760,   6.57831717,   24.5506134,           1.
   1761,   6.97733021,   26.0397511,           1.
   1762,   7.37634277,   27.5288868,           1.
   1763,   7.77535534,   29.0180206,           1.
   1764,    8.1743679,   30.5071583,           1.
   1765,   8.57338047,   31.9962921,           1.
   1766,   8.97239399,   33.4854317,           1.
   1767,    9.3714056,   34.9745636,           1.
   1768,   9.77041912,   36.4636993,           1.
   1769,   10.1694317,   37.9528351,           1.
   1770,   10.5684443,   39.4419708,           1.
   1771,   10.9674568,   40.9311066,           1.
   1772,   11.3664703,   42.4202423,           1.
   1773,   11.7654819,   43.9093781,           1.
   1774,   12.1644955,   45.3985138,           1.
   1775,    12.563508,   46.8876495,           1.
   1776,   12.9625206,   48.3767853,           1.
   1777,   13.3615332,    49.865921,           1.
   1778,   13.7605467,   51.3550568,           1.
   1779,   14.1595583,   52.8441925,           1.
   1780,   2.39964747,   11.2894535,           1.
   1781,   2.72017789,    12.797431,           1.
   1782,   3.04070854,   14.3054085,           1.
   1783,   3.36123896,    15.813386,           1.
   1784,   3.68176961,   17.3213634,           1.
   1785,   4.00230026,   18.8293419,           1.
   1786,   4.32283068,   20.3373184,           1.
   1787,   4.64336109,   21.8452969,           1.
   1788,   4.96389151,   23.3532734,           1.
   1789,   5.28442192,   24.8612518,           1.
   1790,   5.60495281,   26.3692303,           1.
   1791,   5.92548323,   27.8772068,           1.
   1792,   6.24601364,   29.3851833,           1.
   1793,   6.56654453,   30.8931618,           1.
   1794,   6.88707495,   32.4011383,           1.
   1795,   7.20760536,   33.9091187,           1.
   1796,   7.52813578,   35.4170914,           1.
   1797,   7.84866619,   36.9250717,           1.
   1798,   8.16919708,   38.4330521,           1.
   1799,   8.48972702,   39.9410248,           1.
   1800,   8.81025791,   41.4490051,           1.
   1801,    9.1307888,   42.9569817,           1.
   1802,   9.45131874,   44.4649582,           1.
   1803,   9.77184963,   45.9729385,           1.
   1804,   10.0923805,   47.4809151,           1.
   1805,   10.4129105,   48.9888916,           1.
   1806,   10.7334414,   50.4968681,           1.
   1807,   11.0539722,   52.0048485,           1.
   1808,   11.3745022,    53.512825,           1.
   1809,   1.80551445,   11.3995695,           1.
   1810,   2.04668427,   12.9222555,           1.
   1811,   2.28785396,   14.4449415,           1.
   1812,   2.52902365,   15.9676275,           1.
   1813,   2.77019382,   17.4903145,           1.
   1814,   3.01136351,   19.0130005,           1.
   1815,    3.2525332,   20.5356865,           1.
   1816,   3.49370313,   22.0583744,           1.
   1817,   3.73487282,   23.5810585,           1.
   1818,   3.97604251,   25.1037445,           1.
   1819,   4.21721268,   26.6264324,           1.
   1820,   4.45838213,   28.1491184,           1.
   1821,   4.69955206,   29.6718025,           1.
   1822,   4.94072199,   31.1944904,           1.
   1823,   5.18189144,   32.7171745,           1.
   1824,   5.42306185,   34.2398643,           1.
   1825,   5.66423082,   35.7625465,           1.
   1826,   5.90540123,   37.2852364,           1.
   1827,   6.14657116,   38.8079224,           1.
   1828,   6.38774061,   40.3306046,           1.
   1829,   6.62891054,   41.8532944,           1.
   1830,   6.87008047,   43.3759804,           1.
   1831,   7.11124992,   44.8986664,           1.
   1832,   7.35241985,   46.4213524,           1.
   1833,   7.59358978,   47.9440384,           1.
   1834,   7.83475924,   49.4667244,           1.
   1835,   8.07592964,   50.9894104,           1.
   1836,   8.31709957,   52.5120964,           1.
   1837,   8.55826855,   54.0347824,           1.
   1838,    1.2064327,   11.4784403,           1.
   1839,   1.36758065,   13.0116615,           1.
   1840,   1.52872872,   14.5448828,           1.
   1841,   1.68987679,    16.078104,           1.
   1842,   1.85102499,   17.6113262,           1.
   1843,   2.01217294,   19.1445465,           1.
   1844,   2.17332101,   20.6777668,           1.
   1845,   2.33446908,    22.210989,           1.
   1846,   2.49561715,   23.7442112,           1.
   1847,   2.65676498,   25.2774315,           1.
   1848,   2.81791329,   26.8106537,           1.
   1849,   2.97906113,    28.343874,           1.
   1850,    3.1402092,   29.8770943,           1.
   1851,   3.30135727,   31.4103165,           1.
   1852,   3.46250534,   32.9435387,           1.
   1853,   3.62365341,   34.4767609,           1.
   1854,   3.78480124,   36.0099792,           1.
   1855,   3.94594955,   37.5432014,           1.
   1856,   4.10709763,   39.0764236,           1.
   1857,   4.26824522,    40.609642,           1.
   1858,   4.42939377,   42.1428642,           1.
   1859,   4.59054184,   43.6760864,           1.
   1860,   4.75168943,   45.2093048,           1.
   1861,   4.91283798,   46.7425308,           1.
   1862,   5.07398605,    48.275753,           1.
   1863,   5.23513365,   49.8089714,           1.
   1864,   5.39628172,   51.3421936,           1.
   1865,   5.55743027,   52.8754158,           1.
   1866,   5.71857786,   54.4086342,           1.
   1867,  0.604044199,   11.5258493,           1.
   1868,  0.684728742,    13.065403,           1.
   1869,  0.765413344,   14.6049566,           1.
   1870,  0.846097946,   16.1445103,           1.
   1871,  0.926782608,   17.6840649,           1.
   1872,   1.00746715,   19.2236195,           1.
   1873,   1.08815169,   20.7631721,           1.
   1874,   1.16883636,   22.3027267,           1.
   1875,    1.2495209,   23.8422794,           1.
   1876,   1.33020556,    25.381834,           1.
   1877,   1.41089022,   26.9213886,           1.
   1878,   1.49157476,   28.4609413,           1.
   1879,   1.57225931,   30.0004959,           1.
   1880,   1.65294397,   31.5400505,           1.
   1881,   1.73362851,   33.0796051,           1.
   1882,   1.81431317,   34.6191597,           1.
   1883,   1.89499772,   36.1587105,           1.
   1884,   1.97568238,   37.6982651,           1.
   1885,   2.05636692,   39.2378197,           1.
   1886,   2.13705158,   40.7773705,           1.
   1887,   2.21773624,    42.316925,           1.
   1888,   2.29842091,   43.8564835,           1.
   1889,   2.37910533,   45.3960342,           1.
   1890,   2.45978999,   46.9355888,           1.
   1891,   2.54047465,   48.4751434,           1.
   1892,   2.62115908,   50.0146942,           1.
   1893,   2.70184374,   51.5542488,           1.
   1894,    2.7825284,   53.0938034,           1.
   1895,   2.86321282,    54.633358,           1.
   1896,    54.633358,   2.86321282,           0.
   1897,   53.0938034,    2.7825284,           0.
   1898,   51.5542488,   2.70184374,           0.
   1899,   50.0146942,   2.62115908,           0.
   1900,   48.4751434,   2.54047465,           0.
   1901,   46.9355888,   2.45978999,           0.
   1902,   45.3960342,   2.37910533,           0.
   1903,   43.8564835,   2.29842091,           0.
   1904,    42.316925,   2.21773624,           0.
   1905,   40.7773705,   2.13705158,           0.
   1906,   39.2378197,   2.05636692,           0.
   1907,   37.6982651,   1.97568238,           0.
   1908,   36.1587105,   1.89499772,           0.
   1909,   34.6191597,   1.81431317,           0.
   1910,   33.0796051,   1.73362851,           0.
   1911,   31.5400505,   1.65294397,           0.
   1912,   30.0004959,   1.57225931,           0.
   1913,   28.4609413,   1.49157476,           0.
   1914,   26.9213886,   1.41089022,           0.
   1915,    25.381834,   1.33020556,           0.
   1916,   23.8422794,    1.2495209,           0.
   1917,   22.3027267,   1.16883636,           0.
   1918,   20.7631721,   1.08815169,           0.
   1919,   19.2236195,   1.00746715,           0.
   1920,   17.6840649,  0.926782608,           0.
   1921,   16.1445103,  0.846097946,           0.
   1922,   14.6049566,  0.765413344,           0.
   1923,    13.065403,  0.684728742,           0.
   1924,   11.5258493,  0.604044199,           0.
   1925,   54.4086342,   5.71857786,           0.
   1926,   52.8754158,   5.55743027,           0.
   1927,   51.3421936,   5.39628172,           0.
   1928,   49.8089714,   5.23513365,           0.
   1929,    48.275753,   5.07398605,           0.
   1930,   46.7425308,   4.91283798,           0.
   1931,   45.2093048,   4.75168943,           0.
   1932,   43.6760864,   4.59054184,           0.
   1933,   42.1428642,   4.42939377,           0.
   1934,    40.609642,   4.26824522,           0.
   1935,   39.0764236,   4.10709763,           0.
   1936,   37.5432014,   3.94594955,           0.
   1937,   36.0099792,   3.78480124,           0.
   1938,   34.4767609,   3.62365341,           0.
   1939,   32.9435387,   3.46250534,           0.
   1940,   31.4103165,   3.30135727,           0.
   1941,   29.8770943,    3.1402092,           0.
   1942,    28.343874,   2.97906113,           0.
   1943,   26.8106537,   2.81791329,           0.
   1944,   25.2774315,   2.65676498,           0.
   1945,   23.7442112,   2.49561715,           0.
   1946,    22.210989,   2.33446908,           0.
   1947,   20.6777668,   2.17332101,           0.
   1948,   19.1445465,   2.01217294,           0.
   1949,   17.6113262,   1.85102499,           0.
   1950,    16.078104,   1.68987679,           0.
   1951,   14.5448828,   1.52872872,           0.
   1952,   13.0116615,   1.36758065,           0.
   1953,   11.4784403,    1.2064327,           0.
   1954,   54.0347824,   8.55826855,           0.
   1955,   52.5120964,   8.31709957,           0.
   1956,   50.9894104,   8.07592964,           0.
   1957,   49.4667244,   7.83475924,           0.
   1958,   47.9440384,   7.59358978,           0.
   1959,   46.4213524,   7.35241985,           0.
   1960,   44.8986664,   7.11124992,           0.
   1961,   43.3759804,   6.87008047,           0.
   1962,   41.8532944,   6.62891054,           0.
   1963,   40.3306046,   6.38774061,           0.
   1964,   38.8079224,   6.14657116,           0.
   1965,   37.2852364,   5.90540123,           0.
   1966,   35.7625465,   5.66423082,           0.
   1967,   34.2398643,   5.42306185,           0.
   1968,   32.7171745,   5.18189144,           0.
   1969,   31.1944904,   4.94072199,           0.
   1970,   29.6718025,   4.69955206,           0.
   1971,   28.1491184,   4.45838213,           0.
   1972,   26.6264324,   4.21721268,           0.
   1973,   25.1037445,   3.97604251,           0.
   1974,   23.5810585,   3.73487282,           0.
   1975,   22.0583744,   3.49370313,           0.
   1976,   20.5356865,    3.2525332,           0.
   1977,   19.0130005,   3.01136351,           0.
   1978,   17.4903145,   2.77019382,           0.
   1979,   15.9676275,   2.52902365,           0.
   1980,   14.4449415,   2.28785396,           0.
   1981,   12.9222555,   2.04668427,           0.
   1982,   11.3995695,   1.80551445,           0.
   1983,    53.512825,   11.3745022,           0.
   1984,   52.0048485,   11.0539722,           0.
   1985,   50.4968681,   10.7334414,           0.
   1986,   48.9888916,   10.4129105,           0.
   1987,   47.4809151,   10.0923805,           0.
   1988,   45.9729385,   9.77184963,           0.
   1989,   44.4649582,   9.45131874,           0.
   1990,   42.9569817,    9.1307888,           0.
   1991,   41.4490051,   8.81025791,           0.
   1992,   39.9410248,   8.48972702,           0.
   1993,   38.4330521,   8.16919708,           0.
   1994,   36.9250717,   7.84866619,           0.
   1995,   35.4170914,   7.52813578,           0.
   1996,   33.9091187,   7.20760536,           0.
   1997,   32.4011383,   6.88707495,           0.
   1998,   30.8931618,   6.56654453,           0.
   1999,   29.3851833,   6.24601364,           0.
   2000,   27.8772068,   5.92548323,           0.
   2001,   26.3692303,   5.60495281,           0.
   2002,   24.8612518,   5.28442192,           0.
   2003,   23.3532734,   4.96389151,           0.
   2004,   21.8452969,   4.64336109,           0.
   2005,   20.3373184,   4.32283068,           0.
   2006,   18.8293419,   4.00230026,           0.
   2007,   17.3213634,   3.68176961,           0.
   2008,    15.813386,   3.36123896,           0.
   2009,   14.3054085,   3.04070854,           0.
   2010,    12.797431,   2.72017789,           0.
   2011,   11.2894535,   2.39964747,           0.
   2012,   52.8441925,   14.1595583,           0.
   2013,   51.3550568,   13.7605467,           0.
   2014,    49.865921,   13.3615332,           0.
   2015,   48.3767853,   12.9625206,           0.
   2016,   46.8876495,    12.563508,           0.
   2017,   45.3985138,   12.1644955,           0.
   2018,   43.9093781,   11.7654819,           0.
   2019,   42.4202423,   11.3664703,           0.
   2020,   40.9311066,   10.9674568,           0.
   2021,   39.4419708,   10.5684443,           0.
   2022,   37.9528351,   10.1694317,           0.
   2023,   36.4636993,   9.77041912,           0.
   2024,   34.9745636,    9.3714056,           0.
   2025,   33.4854317,   8.97239399,           0.
   2026,   31.9962921,   8.57338047,           0.
   2027,   30.5071583,    8.1743679,           0.
   2028,   29.0180206,   7.77535534,           0.
   2029,   27.5288868,   7.37634277,           0.
   2030,   26.0397511,   6.97733021,           0.
   2031,   24.5506134,   6.57831717,           0.
   2032,   23.0614796,    6.1793046,           0.
   2033,   21.5723438,   5.78029203,           0.
   2034,   20.0832081,   5.38127899,           0.
   2035,   18.5940723,   4.98226643,           0.
   2036,   17.1049366,   4.58325386,           0.
   2037,   15.6157999,   4.18424129,           0.
   2038,   14.1266651,   3.78522849,           0.
   2039,   12.6375294,   3.38621569,           0.
   2040,   11.1483946,   2.98720312,           0.
   2041,   52.0307159,   16.9058037,           0.
   2042,   50.5645065,   16.4294033,           0.
   2043,   49.0982933,    15.953002,           0.
   2044,   47.6320801,   15.4766006,           0.
   2045,   46.1658707,   15.0002003,           0.
   2046,   44.6996574,   14.5237989,           0.
   2047,   43.2334442,   14.0473976,           0.
   2048,   41.7672348,   13.5709963,           0.
   2049,   40.3010216,    13.094595,           0.
   2050,   38.8348083,   12.6181936,           0.
   2051,   37.3685951,   12.1417933,           0.
   2052,   35.9023819,   11.6653919,           0.
   2053,   34.4361687,   11.1889896,           0.
   2054,   32.9699593,   10.7125893,           0.
   2055,   31.5037479,   10.2361879,           0.
   2056,   30.0375347,   9.75978661,           0.
   2057,   28.5713215,   9.28338528,           0.
   2058,   27.1051102,   8.80698395,           0.
   2059,   25.6388988,   8.33058357,           0.
   2060,   24.1726856,   7.85418177,           0.
   2061,   22.7064743,   7.37778091,           0.
   2062,    21.240263,   6.90137959,           0.
   2063,   19.7740498,   6.42497826,           0.
   2064,   18.3078384,   5.94857693,           0.
   2065,   16.8416271,   5.47217607,           0.
   2066,   15.3754129,   4.99577475,           0.
   2067,   13.9092016,   4.51937342,           0.
   2068,   12.4429893,   4.04297209,           0.
   2069,    10.976778,   3.56657124,           0.
   2070,   51.0746269,   19.6057129,           0.
   2071,   49.6353607,   19.0532303,           0.
   2072,   48.1960907,   18.5007458,           0.
   2073,   46.7568169,   17.9482613,           0.
   2074,   45.3175507,   17.3957787,           0.
   2075,   43.8782806,   16.8432941,           0.
   2076,   42.4390106,   16.2908096,           0.
   2077,   40.9997406,   15.7383261,           0.
   2078,   39.5604706,   15.1858416,           0.
   2079,   38.1212006,    14.633357,           0.
   2080,   36.6819305,   14.0808744,           0.
   2081,   35.2426605,   13.5283899,           0.
   2082,   33.8033905,   12.9759054,           0.
   2083,   32.3641243,   12.4234228,           0.
   2084,   30.9248524,   11.8709383,           0.
   2085,   29.4855824,   11.3184547,           0.
   2086,   28.0463123,   10.7659702,           0.
   2087,   26.6070423,   10.2134867,           0.
   2088,   25.1677723,   9.66100311,           0.
   2089,   23.7285023,    9.1085186,           0.
   2090,   22.2892323,   8.55603504,           0.
   2091,   20.8499641,   8.00355148,           0.
   2092,   19.4106922,   7.45106649,           0.
   2093,   17.9714241,   6.89858294,           0.
   2094,   16.5321541,   6.34609938,           0.
   2095,   15.0928831,   5.79361486,           0.
   2096,    13.653614,   5.24113131,           0.
   2097,    12.214344,   4.68864727,           0.
   2098,    10.775074,   4.13616371,           0.
   2099,     49.97855,   22.2518826,           0.
   2100,   48.5701675,   21.6248322,           0.
   2101,   47.1617851,   20.9977798,           0.
   2102,   45.7533989,   20.3707256,           0.
   2103,   44.3450203,   19.7436752,           0.
   2104,   42.9366379,   19.1166229,           0.
   2105,   41.5282516,   18.4895687,           0.
   2106,    40.119873,   17.8625183,           0.
   2107,   38.7114906,    17.235466,           0.
   2108,   37.3031044,   16.6084118,           0.
   2109,   35.8947258,   15.9813614,           0.
   2110,   34.4863396,   15.3543081,           0.
   2111,   33.0779572,   14.7272558,           0.
   2112,   31.6695766,   14.1002045,           0.
   2113,   30.2611942,   13.4731512,           0.
   2114,   28.8528118,   12.8460989,           0.
   2115,   27.4444275,   12.2190466,           0.
   2116,   26.0360451,   11.5919943,           0.
   2117,   24.6276627,    10.964942,           0.
   2118,   23.2192802,   10.3378897,           0.
   2119,   21.8108978,   9.71083736,           0.
   2120,   20.4025154,   9.08378506,           0.
   2121,    18.994133,   8.45673275,           0.
   2122,   17.5857506,   7.82968044,           0.
   2123,   16.1773682,   7.20262814,           0.
   2124,   14.7689838,   6.57557535,           0.
   2125,   13.3606024,   5.94852352,           0.
   2126,    11.952219,   5.32147074,           0.
   2127,   10.5438375,   4.69441891,           0.
   2128,   48.7454796,   24.8370628,           0.
   2129,   47.3718491,   24.1371613,           0.
   2130,   45.9982109,   23.4372597,           0.
   2131,   44.6245766,   22.7373562,           0.
   2132,   43.2509422,   22.0374565,           0.
   2133,   41.8773079,    21.337553,           0.
   2134,   40.5036697,   20.6376514,           0.
   2135,   39.1300392,   19.9377499,           0.
   2136,   37.7564011,   19.2378483,           0.
   2137,   36.3827667,   18.5379448,           0.
   2138,   35.0091324,   17.8380432,           0.
   2139,    33.635498,   17.1381416,           0.
   2140,   32.2618599,   16.4382381,           0.
   2141,   30.8882275,   15.7383375,           0.
   2142,   29.5145912,    15.038435,           0.
   2143,   28.1409569,   14.3385334,           0.
   2144,   26.7673206,   13.6386309,           0.
   2145,   25.3936863,   12.9387293,           0.
   2146,    24.020052,   12.2388277,           0.
   2147,   22.6464157,   11.5389252,           0.
   2148,   21.2727814,   10.8390236,           0.
   2149,    19.899147,   10.1391211,           0.
   2150,   18.5255108,   9.43921852,           0.
   2151,   17.1518764,   8.73931694,           0.
   2152,   15.7782412,   8.03941536,           0.
   2153,   14.4046049,   7.33951283,           0.
   2154,   13.0309706,   6.63961124,           0.
   2155,   11.6573353,   5.93970871,           0.
   2156,   10.2837009,   5.23980713,           0.
   2157,   47.3788071,    27.354166,           0.
   2158,   46.0436859,    26.583334,           0.
   2159,   44.7085609,      25.8125,           0.
   2160,    43.373436,    25.041666,           0.
   2161,   42.0383186,    24.270834,           0.
   2162,   40.7031937,         23.5,           0.
   2163,   39.3680687,    22.729166,           0.
   2164,   38.0329514,    21.958334,           0.
   2165,   36.6978264,      21.1875,           0.
   2166,   35.3627014,    20.416666,           0.
   2167,   34.0275841,    19.645834,           0.
   2168,   32.6924591,       18.875,           0.
   2169,    31.357336,    18.104166,           0.
   2170,   30.0222149,    17.333334,           0.
   2171,   28.6870918,      16.5625,           0.
   2172,   27.3519688,    15.791667,           0.
   2173,   26.0168457,    15.020833,           0.
   2174,   24.6817245,        14.25,           0.
   2175,   23.3466015,    13.479167,           0.
   2176,   22.0114784,    12.708333,           0.
   2177,   20.6763573,      11.9375,           0.
   2178,   19.3412342,    11.166667,           0.
   2179,   18.0061111,    10.395833,           0.
   2180,   16.6709881,        9.625,           0.
   2181,   15.3358669,   8.85416698,           0.
   2182,   14.0007439,   8.08333302,           0.
   2183,   12.6656218,       7.3125,           0.
   2184,   11.3304987,   6.54166651,           0.
   2185,   9.99537659,   5.77083349,           0.
   2186,    45.882267,   29.7962933,           0.
   2187,   44.5893211,   28.9566422,           0.
   2188,   43.2963676,    28.116991,           0.
   2189,    42.003418,    27.277338,           0.
   2190,   40.7104683,   26.4376869,           0.
   2191,   39.4175148,   25.5980339,           0.
   2192,   38.1245651,   24.7583828,           0.
   2193,   36.8316154,   23.9187317,           0.
   2194,   35.5386658,   23.0790787,           0.
   2195,   34.2457123,   22.2394257,           0.
   2196,   32.9527664,   21.3997765,           0.
   2197,   31.6598148,   20.5601234,           0.
   2198,   30.3668633,   19.7204704,           0.
   2199,   29.0739136,   18.8808212,           0.
   2200,    27.780962,   18.0411682,           0.
   2201,   26.4880123,   17.2015171,           0.
   2202,   25.1950607,   16.3618641,           0.
   2203,   23.9021111,    15.522212,           0.
   2204,   22.6091614,   14.6825609,           0.
   2205,   21.3162098,   13.8429089,           0.
   2206,   20.0232601,   13.0032568,           0.
   2207,   18.7303104,   12.1636057,           0.
   2208,   17.4373589,   11.3239527,           0.
   2209,   16.1444092,   10.4843016,           0.
   2210,   14.8514585,   9.64464951,           0.
   2211,    13.558507,   8.80499744,           0.
   2212,   12.2655573,   7.96534586,           0.
   2213,   10.9726067,    7.1256938,           0.
   2214,   9.67965603,   6.28604221,           0.
   2215,   44.2599716,   32.1567497,           0.
   2216,   43.0127373,   31.2505836,           0.
   2217,   41.7655029,   30.3444138,           0.
   2218,   40.5182686,   29.4382439,           0.
   2219,   39.2710342,   28.5320759,           0.
   2220,   38.0237999,    27.625906,           0.
   2221,   36.7765617,    26.719738,           0.
   2222,   35.5293312,     25.81357,           0.
   2223,   34.2820969,   24.9074001,           0.
   2224,   33.0348587,   24.0012302,           0.
   2225,   31.7876263,   23.0950623,           0.
   2226,   30.5403919,   22.1888924,           0.
   2227,   29.2931557,   21.2827244,           0.
   2228,   28.0459232,   20.3765564,           0.
   2229,   26.7986889,   19.4703865,           0.
   2230,   25.5514545,   18.5642185,           0.
   2231,   24.3042183,   17.6580486,           0.
   2232,   23.0569839,   16.7518787,           0.
   2233,   21.8097496,   15.8457108,           0.
   2234,   20.5625153,   14.9395418,           0.
   2235,   19.3152809,   14.0333729,           0.
   2236,   18.0680466,   13.1272039,           0.
   2237,   16.8208103,    12.221035,           0.
   2238,   15.5735769,   11.3148661,           0.
   2239,   14.3263435,   10.4086971,           0.
   2240,   13.0791073,   9.50252819,           0.
   2241,   11.8318739,   8.59635925,           0.
   2242,   10.5846386,   7.69019032,           0.
   2243,    9.3374052,   6.78402185,           0.
   2244,   42.5163574,   34.4290695,           0.
   2245,   41.3182602,   33.4588699,           0.
   2246,   40.1201591,   32.4886665,           0.
   2247,   38.9220581,   31.5184612,           0.
   2248,   37.7239609,   30.5482616,           0.
   2249,   36.5258598,   29.5780582,           0.
   2250,   35.3277588,   28.6078548,           0.
   2251,   34.1296616,   27.6376553,           0.
   2252,   32.9315605,   26.6674519,           0.
   2253,   31.7334595,   25.6972485,           0.
   2254,   30.5353603,    24.727047,           0.
   2255,   29.3372593,   23.7568455,           0.
   2256,   28.1391582,   22.7866421,           0.
   2257,    26.941061,   21.8164406,           0.
   2258,     25.74296,   20.8462372,           0.
   2259,   24.5448608,   19.8760357,           0.
   2260,   23.3467598,   18.9058323,           0.
   2261,   22.1486607,   17.9356308,           0.
   2262,   20.9505596,   16.9654293,           0.
   2263,   19.7524586,   15.9952259,           0.
   2264,   18.5543594,   15.0250244,           0.
   2265,   17.3562603,   14.0548229,           0.
   2266,   16.1581593,   13.0846195,           0.
   2267,   14.9600601,   12.1144171,           0.
   2268,     13.76196,   11.1442156,           0.
   2269,    12.563859,   10.1740122,           0.
   2270,   11.3657598,   9.20381069,           0.
   2271,   10.1676598,   8.23360825,           0.
   2272,   8.96955967,   7.26340628,           0.
   2273,   40.6562157,   36.6070175,           0.
   2274,   39.5105324,   35.5754433,           0.
   2275,   38.3648529,    34.543869,           0.
   2276,   37.2191696,    33.512291,           0.
   2277,   36.0734901,   32.4807167,           0.
   2278,   34.9278069,   31.4491386,           0.
   2279,   33.7821236,   30.4175606,           0.
   2280,   32.6364441,   29.3859863,           0.
   2281,   31.4907627,   28.3544102,           0.
   2282,   30.3450794,   27.3228321,           0.
   2283,   29.1993999,   26.2912579,           0.
   2284,   28.0537167,   25.2596798,           0.
   2285,   26.9080353,   24.2281036,           0.
   2286,   25.7623558,   23.1965294,           0.
   2287,   24.6166725,   22.1649513,           0.
   2288,   23.4709911,   21.1333752,           0.
   2289,   22.3253078,    20.101799,           0.
   2290,   21.1796284,   19.0702229,           0.
   2291,    20.033947,   18.0386467,           0.
   2292,   18.8882637,   17.0070686,           0.
   2293,   17.7425823,   15.9754934,           0.
   2294,   16.5969009,   14.9439173,           0.
   2295,   15.4512186,   13.9123402,           0.
   2296,   14.3055382,    12.880764,           0.
   2297,   13.1598568,   11.8491879,           0.
   2298,   12.0141745,   10.8176107,           0.
   2299,   10.8684931,   9.78603554,           0.
   2300,    9.7228117,   8.75445843,           0.
   2301,   8.57713032,   7.72288275,           0.
   2302,   38.6846313,   38.6846313,           0.
   2303,   37.5945129,   37.5945129,           0.
   2304,   36.5043869,   36.5043869,           0.
   2305,   35.4142647,   35.4142647,           0.
   2306,   34.3241425,   34.3241425,           0.
   2307,   33.2340202,   33.2340202,           0.
   2308,   32.1438942,   32.1438942,           0.
   2309,   31.0537739,   31.0537739,           0.
   2310,   29.9636497,   29.9636497,           0.
   2311,   28.8735256,   28.8735256,           0.
   2312,   27.7834053,   27.7834053,           0.
   2313,   26.6932812,   26.6932812,           0.
   2314,    25.603157,    25.603157,           0.
   2315,   24.5130367,   24.5130367,           0.
   2316,   23.4229126,   23.4229126,           0.
   2317,   22.3327904,   22.3327904,           0.
   2318,   21.2426662,   21.2426662,           0.
   2319,    20.152544,    20.152544,           0.
   2320,   19.0624199,   19.0624199,           0.
   2321,   17.9722977,   17.9722977,           0.
   2322,   16.8821735,   16.8821735,           0.
   2323,   15.7920523,   15.7920523,           0.
   2324,   14.7019281,   14.7019281,           0.
   2325,   13.6118059,   13.6118059,           0.
   2326,   12.5216827,   12.5216827,           0.
   2327,   11.4315596,   11.4315596,           0.
   2328,   10.3414364,   10.3414364,           0.
   2329,   9.25131321,   9.25131321,           0.
   2330,   8.16119099,   8.16119099,           0.
   2331,   36.6070175,   40.6562157,           0.
   2332,   35.5754433,   39.5105324,           0.
   2333,    34.543869,   38.3648529,           0.
   2334,    33.512291,   37.2191696,           0.
   2335,   32.4807167,   36.0734901,           0.
   2336,   31.4491386,   34.9278069,           0.
   2337,   30.4175606,   33.7821236,           0.
   2338,   29.3859863,   32.6364441,           0.
   2339,   28.3544102,   31.4907627,           0.
   2340,   27.3228321,   30.3450794,           0.
   2341,   26.2912579,   29.1993999,           0.
   2342,   25.2596798,   28.0537167,           0.
   2343,   24.2281036,   26.9080353,           0.
   2344,   23.1965294,   25.7623558,           0.
   2345,   22.1649513,   24.6166725,           0.
   2346,   21.1333752,   23.4709911,           0.
   2347,    20.101799,   22.3253078,           0.
   2348,   19.0702229,   21.1796284,           0.
   2349,   18.0386467,    20.033947,           0.
   2350,   17.0070686,   18.8882637,           0.
   2351,   15.9754934,   17.7425823,           0.
   2352,   14.9439173,   16.5969009,           0.
   2353,   13.9123402,   15.4512186,           0.
   2354,    12.880764,   14.3055382,           0.
   2355,   11.8491879,   13.1598568,           0.
   2356,   10.8176107,   12.0141745,           0.
   2357,   9.78603554,   10.8684931,           0.
   2358,   8.75445843,    9.7228117,           0.
   2359,   7.72288275,   8.57713032,           0.
   2360,   34.4290695,   42.5163574,           0.
   2361,   33.4588699,   41.3182602,           0.
   2362,   32.4886665,   40.1201591,           0.
   2363,   31.5184612,   38.9220581,           0.
   2364,   30.5482616,   37.7239609,           0.
   2365,   29.5780582,   36.5258598,           0.
   2366,   28.6078548,   35.3277588,           0.
   2367,   27.6376553,   34.1296616,           0.
   2368,   26.6674519,   32.9315605,           0.
   2369,   25.6972485,   31.7334595,           0.
   2370,    24.727047,   30.5353603,           0.
   2371,   23.7568455,   29.3372593,           0.
   2372,   22.7866421,   28.1391582,           0.
   2373,   21.8164406,    26.941061,           0.
   2374,   20.8462372,     25.74296,           0.
   2375,   19.8760357,   24.5448608,           0.
   2376,   18.9058323,   23.3467598,           0.
   2377,   17.9356308,   22.1486607,           0.
   2378,   16.9654293,   20.9505596,           0.
   2379,   15.9952259,   19.7524586,           0.
   2380,   15.0250244,   18.5543594,           0.
   2381,   14.0548229,   17.3562603,           0.
   2382,   13.0846195,   16.1581593,           0.
   2383,   12.1144171,   14.9600601,           0.
   2384,   11.1442156,     13.76196,           0.
   2385,   10.1740122,    12.563859,           0.
   2386,   9.20381069,   11.3657598,           0.
   2387,   8.23360825,   10.1676598,           0.
   2388,   7.26340628,   8.96955967,           0.
   2389,   32.1567497,   44.2599716,           0.
   2390,   31.2505836,   43.0127373,           0.
   2391,   30.3444138,   41.7655029,           0.
   2392,   29.4382439,   40.5182686,           0.
   2393,   28.5320759,   39.2710342,           0.
   2394,    27.625906,   38.0237999,           0.
   2395,    26.719738,   36.7765617,           0.
   2396,     25.81357,   35.5293312,           0.
   2397,   24.9074001,   34.2820969,           0.
   2398,   24.0012302,   33.0348587,           0.
   2399,   23.0950623,   31.7876263,           0.
   2400,   22.1888924,   30.5403919,           0.
   2401,   21.2827244,   29.2931557,           0.
   2402,   20.3765564,   28.0459232,           0.
   2403,   19.4703865,   26.7986889,           0.
   2404,   18.5642185,   25.5514545,           0.
   2405,   17.6580486,   24.3042183,           0.
   2406,   16.7518787,   23.0569839,           0.
   2407,   15.8457108,   21.8097496,           0.
   2408,   14.9395418,   20.5625153,           0.
   2409,   14.0333729,   19.3152809,           0.
   2410,   13.1272039,   18.0680466,           0.
   2411,    12.221035,   16.8208103,           0.
   2412,   11.3148661,   15.5735769,           0.
   2413,   10.4086971,   14.3263435,           0.
   2414,   9.50252819,   13.0791073,           0.
   2415,   8.59635925,   11.8318739,           0.
   2416,   7.69019032,   10.5846386,           0.
   2417,   6.78402185,    9.3374052,           0.
   2418,   29.7962933,    45.882267,           0.
   2419,   28.9566422,   44.5893211,           0.
   2420,    28.116991,   43.2963676,           0.
   2421,    27.277338,    42.003418,           0.
   2422,   26.4376869,   40.7104683,           0.
   2423,   25.5980339,   39.4175148,           0.
   2424,   24.7583828,   38.1245651,           0.
   2425,   23.9187317,   36.8316154,           0.
   2426,   23.0790787,   35.5386658,           0.
   2427,   22.2394257,   34.2457123,           0.
   2428,   21.3997765,   32.9527664,           0.
   2429,   20.5601234,   31.6598148,           0.
   2430,   19.7204704,   30.3668633,           0.
   2431,   18.8808212,   29.0739136,           0.
   2432,   18.0411682,    27.780962,           0.
   2433,   17.2015171,   26.4880123,           0.
   2434,   16.3618641,   25.1950607,           0.
   2435,    15.522212,   23.9021111,           0.
   2436,   14.6825609,   22.6091614,           0.
   2437,   13.8429089,   21.3162098,           0.
   2438,   13.0032568,   20.0232601,           0.
   2439,   12.1636057,   18.7303104,           0.
   2440,   11.3239527,   17.4373589,           0.
   2441,   10.4843016,   16.1444092,           0.
   2442,   9.64464951,   14.8514585,           0.
   2443,   8.80499744,    13.558507,           0.
   2444,   7.96534586,   12.2655573,           0.
   2445,    7.1256938,   10.9726067,           0.
   2446,   6.28604221,   9.67965603,           0.
   2447,    27.354166,   47.3788071,           0.
   2448,    26.583334,   46.0436859,           0.
   2449,      25.8125,   44.7085609,           0.
   2450,    25.041666,    43.373436,           0.
   2451,    24.270834,   42.0383186,           0.
   2452,         23.5,   40.7031937,           0.
   2453,    22.729166,   39.3680687,           0.
   2454,    21.958334,   38.0329514,           0.
   2455,      21.1875,   36.6978264,           0.
   2456,    20.416666,   35.3627014,           0.
   2457,    19.645834,   34.0275841,           0.
   2458,       18.875,   32.6924591,           0.
   2459,    18.104166,    31.357336,           0.
   2460,    17.333334,   30.0222149,           0.
   2461,      16.5625,   28.6870918,           0.
   2462,    15.791667,   27.3519688,           0.
   2463,    15.020833,   26.0168457,           0.
   2464,        14.25,   24.6817245,           0.
   2465,    13.479167,   23.3466015,           0.
   2466,    12.708333,   22.0114784,           0.
   2467,      11.9375,   20.6763573,           0.
   2468,    11.166667,   19.3412342,           0.
   2469,    10.395833,   18.0061111,           0.
   2470,        9.625,   16.6709881,           0.
   2471,   8.85416698,   15.3358669,           0.
   2472,   8.08333302,   14.0007439,           0.
   2473,       7.3125,   12.6656218,           0.
   2474,   6.54166651,   11.3304987,           0.
   2475,   5.77083349,   9.99537659,           0.
   2476,   24.8370628,   48.7454796,           0.
   2477,   24.1371613,   47.3718491,           0.
   2478,   23.4372597,   45.9982109,           0.
   2479,   22.7373562,   44.6245766,           0.
   2480,   22.0374565,   43.2509422,           0.
   2481,    21.337553,   41.8773079,           0.
   2482,   20.6376514,   40.5036697,           0.
   2483,   19.9377499,   39.1300392,           0.
   2484,   19.2378483,   37.7564011,           0.
   2485,   18.5379448,   36.3827667,           0.
   2486,   17.8380432,   35.0091324,           0.
   2487,   17.1381416,    33.635498,           0.
   2488,   16.4382381,   32.2618599,           0.
   2489,   15.7383375,   30.8882275,           0.
   2490,    15.038435,   29.5145912,           0.
   2491,   14.3385334,   28.1409569,           0.
   2492,   13.6386309,   26.7673206,           0.
   2493,   12.9387293,   25.3936863,           0.
   2494,   12.2388277,    24.020052,           0.
   2495,   11.5389252,   22.6464157,           0.
   2496,   10.8390236,   21.2727814,           0.
   2497,   10.1391211,    19.899147,           0.
   2498,   9.43921852,   18.5255108,           0.
   2499,   8.73931694,   17.1518764,           0.
   2500,   8.03941536,   15.7782412,           0.
   2501,   7.33951283,   14.4046049,           0.
   2502,   6.63961124,   13.0309706,           0.
   2503,   5.93970871,   11.6573353,           0.
   2504,   5.23980713,   10.2837009,           0.
   2505,   22.2518826,     49.97855,           0.
   2506,   21.6248322,   48.5701675,           0.
   2507,   20.9977798,   47.1617851,           0.
   2508,   20.3707256,   45.7533989,           0.
   2509,   19.7436752,   44.3450203,           0.
   2510,   19.1166229,   42.9366379,           0.
   2511,   18.4895687,   41.5282516,           0.
   2512,   17.8625183,    40.119873,           0.
   2513,    17.235466,   38.7114906,           0.
   2514,   16.6084118,   37.3031044,           0.
   2515,   15.9813614,   35.8947258,           0.
   2516,   15.3543081,   34.4863396,           0.
   2517,   14.7272558,   33.0779572,           0.
   2518,   14.1002045,   31.6695766,           0.
   2519,   13.4731512,   30.2611942,           0.
   2520,   12.8460989,   28.8528118,           0.
   2521,   12.2190466,   27.4444275,           0.
   2522,   11.5919943,   26.0360451,           0.
   2523,    10.964942,   24.6276627,           0.
   2524,   10.3378897,   23.2192802,           0.
   2525,   9.71083736,   21.8108978,           0.
   2526,   9.08378506,   20.4025154,           0.
   2527,   8.45673275,    18.994133,           0.
   2528,   7.82968044,   17.5857506,           0.
   2529,   7.20262814,   16.1773682,           0.
   2530,   6.57557535,   14.7689838,           0.
   2531,   5.94852352,   13.3606024,           0.
   2532,   5.32147074,    11.952219,           0.
   2533,   4.69441891,   10.5438375,           0.
   2534,   19.6057129,   51.0746269,           0.
   2535,   19.0532303,   49.6353607,           0.
   2536,   18.5007458,   48.1960907,           0.
   2537,   17.9482613,   46.7568169,           0.
   2538,   17.3957787,   45.3175507,           0.
   2539,   16.8432941,   43.8782806,           0.
   2540,   16.2908096,   42.4390106,           0.
   2541,   15.7383261,   40.9997406,           0.
   2542,   15.1858416,   39.5604706,           0.
   2543,    14.633357,   38.1212006,           0.
   2544,   14.0808744,   36.6819305,           0.
   2545,   13.5283899,   35.2426605,           0.
   2546,   12.9759054,   33.8033905,           0.
   2547,   12.4234228,   32.3641243,           0.
   2548,   11.8709383,   30.9248524,           0.
   2549,   11.3184547,   29.4855824,           0.
   2550,   10.7659702,   28.0463123,           0.
   2551,   10.2134867,   26.6070423,           0.
   2552,   9.66100311,   25.1677723,           0.
   2553,    9.1085186,   23.7285023,           0.
   2554,   8.55603504,   22.2892323,           0.
   2555,   8.00355148,   20.8499641,           0.
   2556,   7.45106649,   19.4106922,           0.
   2557,   6.89858294,   17.9714241,           0.
   2558,   6.34609938,   16.5321541,           0.
   2559,   5.79361486,   15.0928831,           0.
   2560,   5.24113131,    13.653614,           0.
   2561,   4.68864727,    12.214344,           0.
   2562,   4.13616371,    10.775074,           0.
   2563,   16.9058037,   52.0307159,           0.
   2564,   16.4294033,   50.5645065,           0.
   2565,    15.953002,   49.0982933,           0.
   2566,   15.4766006,   47.6320801,           0.
   2567,   15.0002003,   46.1658707,           0.
   2568,   14.5237989,   44.6996574,           0.
   2569,   14.0473976,   43.2334442,           0.
   2570,   13.5709963,   41.7672348,           0.
   2571,    13.094595,   40.3010216,           0.
   2572,   12.6181936,   38.8348083,           0.
   2573,   12.1417933,   37.3685951,           0.
   2574,   11.6653919,   35.9023819,           0.
   2575,   11.1889896,   34.4361687,           0.
   2576,   10.7125893,   32.9699593,           0.
   2577,   10.2361879,   31.5037479,           0.
   2578,   9.75978661,   30.0375347,           0.
   2579,   9.28338528,   28.5713215,           0.
   2580,   8.80698395,   27.1051102,           0.
   2581,   8.33058357,   25.6388988,           0.
   2582,   7.85418177,   24.1726856,           0.
   2583,   7.37778091,   22.7064743,           0.
   2584,   6.90137959,    21.240263,           0.
   2585,   6.42497826,   19.7740498,           0.
   2586,   5.94857693,   18.3078384,           0.
   2587,   5.47217607,   16.8416271,           0.
   2588,   4.99577475,   15.3754129,           0.
   2589,   4.51937342,   13.9092016,           0.
   2590,   4.04297209,   12.4429893,           0.
   2591,   3.56657124,    10.976778,           0.
   2592,   14.1595583,   52.8441925,           0.
   2593,   13.7605467,   51.3550568,           0.
   2594,   13.3615332,    49.865921,           0.
   2595,   12.9625206,   48.3767853,           0.
   2596,    12.563508,   46.8876495,           0.
   2597,   12.1644955,   45.3985138,           0.
   2598,   11.7654819,   43.9093781,           0.
   2599,   11.3664703,   42.4202423,           0.
   2600,   10.9674568,   40.9311066,           0.
   2601,   10.5684443,   39.4419708,           0.
   2602,   10.1694317,   37.9528351,           0.
   2603,   9.77041912,   36.4636993,           0.
   2604,    9.3714056,   34.9745636,           0.
   2605,   8.97239399,   33.4854317,           0.
   2606,   8.57338047,   31.9962921,           0.
   2607,    8.1743679,   30.5071583,           0.
   2608,   7.77535534,   29.0180206,           0.
   2609,   7.37634277,   27.5288868,           0.
   2610,   6.97733021,   26.0397511,           0.
   2611,   6.57831717,   24.5506134,           0.
   2612,    6.1793046,   23.0614796,           0.
   2613,   5.78029203,   21.5723438,           0.
   2614,   5.38127899,   20.0832081,           0.
   2615,   4.98226643,   18.5940723,           0.
   2616,   4.58325386,   17.1049366,           0.
   2617,   4.18424129,   15.6157999,           0.
   2618,   3.78522849,   14.1266651,           0.
   2619,   3.38621569,   12.6375294,           0.
   2620,   2.98720312,   11.1483946,           0.
   2621,   11.3745022,    53.512825,           0.
   2622,   11.0539722,   52.0048485,           0.
   2623,   10.7334414,   50.4968681,           0.
   2624,   10.4129105,   48.9888916,           0.
   2625,   10.0923805,   47.4809151,           0.
   2626,   9.77184963,   45.9729385,           0.
   2627,   9.45131874,   44.4649582,           0.
   2628,    9.1307888,   42.9569817,           0.
   2629,   8.81025791,   41.4490051,           0.
   2630,   8.48972702,   39.9410248,           0.
   2631,   8.16919708,   38.4330521,           0.
   2632,   7.84866619,   36.9250717,           0.
   2633,   7.52813578,   35.4170914,           0.
   2634,   7.20760536,   33.9091187,           0.
   2635,   6.88707495,   32.4011383,           0.
   2636,   6.56654453,   30.8931618,           0.
   2637,   6.24601364,   29.3851833,           0.
   2638,   5.92548323,   27.8772068,           0.
   2639,   5.60495281,   26.3692303,           0.
   2640,   5.28442192,   24.8612518,           0.
   2641,   4.96389151,   23.3532734,           0.
   2642,   4.64336109,   21.8452969,           0.
   2643,   4.32283068,   20.3373184,           0.
   2644,   4.00230026,   18.8293419,           0.
   2645,   3.68176961,   17.3213634,           0.
   2646,   3.36123896,    15.813386,           0.
   2647,   3.04070854,   14.3054085,           0.
   2648,   2.72017789,    12.797431,           0.
   2649,   2.39964747,   11.2894535,           0.
   2650,   8.55826855,   54.0347824,           0.
   2651,   8.31709957,   52.5120964,           0.
   2652,   8.07592964,   50.9894104,           0.
   2653,   7.83475924,   49.4667244,           0.
   2654,   7.59358978,   47.9440384,           0.
   2655,   7.35241985,   46.4213524,           0.
   2656,   7.11124992,   44.8986664,           0.
   2657,   6.87008047,   43.3759804,           0.
   2658,   6.62891054,   41.8532944,           0.
   2659,   6.38774061,   40.3306046,           0.
   2660,   6.14657116,   38.8079224,           0.
   2661,   5.90540123,   37.2852364,           0.
   2662,   5.66423082,   35.7625465,           0.
   2663,   5.42306185,   34.2398643,           0.
   2664,   5.18189144,   32.7171745,           0.
   2665,   4.94072199,   31.1944904,           0.
   2666,   4.69955206,   29.6718025,           0.
   2667,   4.45838213,   28.1491184,           0.
   2668,   4.21721268,   26.6264324,           0.
   2669,   3.97604251,   25.1037445,           0.
   2670,   3.73487282,   23.5810585,           0.
   2671,   3.49370313,   22.0583744,           0.
   2672,    3.2525332,   20.5356865,           0.
   2673,   3.01136351,   19.0130005,           0.
   2674,   2.77019382,   17.4903145,           0.
   2675,   2.52902365,   15.9676275,           0.
   2676,   2.28785396,   14.4449415,           0.
   2677,   2.04668427,   12.9222555,           0.
   2678,   1.80551445,   11.3995695,           0.
   2679,   5.71857786,   54.4086342,           0.
   2680,   5.55743027,   52.8754158,           0.
   2681,   5.39628172,   51.3421936,           0.
   2682,   5.23513365,   49.8089714,           0.
   2683,   5.07398605,    48.275753,           0.
   2684,   4.91283798,   46.7425308,           0.
   2685,   4.75168943,   45.2093048,           0.
   2686,   4.59054184,   43.6760864,           0.
   2687,   4.42939377,   42.1428642,           0.
   2688,   4.26824522,    40.609642,           0.
   2689,   4.10709763,   39.0764236,           0.
   2690,   3.94594955,   37.5432014,           0.
   2691,   3.78480124,   36.0099792,           0.
   2692,   3.62365341,   34.4767609,           0.
   2693,   3.46250534,   32.9435387,           0.
   2694,   3.30135727,   31.4103165,           0.
   2695,    3.1402092,   29.8770943,           0.
   2696,   2.97906113,    28.343874,           0.
   2697,   2.81791329,   26.8106537,           0.
   2698,   2.65676498,   25.2774315,           0.
   2699,   2.49561715,   23.7442112,           0.
   2700,   2.33446908,    22.210989,           0.
   2701,   2.17332101,   20.6777668,           0.
   2702,   2.01217294,   19.1445465,           0.
   2703,   1.85102499,   17.6113262,           0.
   2704,   1.68987679,    16.078104,           0.
   2705,   1.52872872,   14.5448828,           0.
   2706,   1.36758065,   13.0116615,           0.
   2707,    1.2064327,   11.4784403,           0.
   2708,   2.86321282,    54.633358,           0.
   2709,    2.7825284,   53.0938034,           0.
   2710,   2.70184374,   51.5542488,           0.
   2711,   2.62115908,   50.0146942,           0.
   2712,   2.54047465,   48.4751434,           0.
   2713,   2.45978999,   46.9355888,           0.
   2714,   2.37910533,   45.3960342,           0.
   2715,   2.29842091,   43.8564835,           0.
   2716,   2.21773624,    42.316925,           0.
   2717,   2.13705158,   40.7773705,           0.
   2718,   2.05636692,   39.2378197,           0.
   2719,   1.97568238,   37.6982651,           0.
   2720,   1.89499772,   36.1587105,           0.
   2721,   1.81431317,   34.6191597,           0.
   2722,   1.73362851,   33.0796051,           0.
   2723,   1.65294397,   31.5400505,           0.
   2724,   1.57225931,   30.0004959,           0.
   2725,   1.49157476,   28.4609413,           0.
   2726,   1.41089022,   26.9213886,           0.
   2727,   1.33020556,    25.381834,           0.
   2728,    1.2495209,   23.8422794,           0.
   2729,   1.16883636,   22.3027267,           0.
   2730,   1.08815169,   20.7631721,           0.
   2731,   1.00746715,   19.2236195,           0.
   2732,  0.926782608,   17.6840649,           0.
   2733,  0.846097946,   16.1445103,           0.
   2734,  0.765413344,   14.6049566,           0.
   2735,  0.684728742,    13.065403,           0.
   2736,  0.604044199,   11.5258493,           0.
   2737,   6.96449041,   6.95593405,  0.333333343
   2738,   6.68924332,   7.15124846,  0.333333373
   2739,   6.31568766,   7.40876722,  0.333333373
   2740,   5.90073252,   7.68159819,  0.333333373
   2741,   5.46423674,   7.94587708,  0.333333373
   2742,   5.01217318,   8.19190311,  0.333333373
   2743,   4.54695177,   8.41638184,  0.333333373
   2744,   4.07018185,   8.61802483,  0.333333373
   2745,   3.58326793,    8.7961359,  0.333333373
   2746,   3.08752656,   8.95016384,  0.333333373
   2747,   2.58424258,    9.0796051,  0.333333373
   2748,   2.07470965,   9.18414593,  0.333333373
   2749,   1.56025541,   9.26390171,  0.333333373
   2750,   1.04217088,   9.31980133,  0.333333373
   2751,  0.521702051,   9.35468769,  0.333333373
   2752,   7.15620279,   6.68415213,  0.333333373
   2753,    7.4107399,   6.31506109,  0.333333373
   2754,    7.6827507,   5.90326834,  0.333333373
   2755,   7.94712639,   5.46795273,  0.333333373
   2756,   8.19346714,   5.01611996,  0.333333373
   2757,   8.41811371,   4.55080986,  0.333333373
   2758,   8.61977959,   4.07387304,  0.333333373
   2759,   8.79785061,   3.58678937,  0.333333373
   2760,   8.95182419,   3.09089351,  0.333333373
   2761,   9.08121586,    2.5874579,  0.333333373
   2762,    9.1856966,   2.07775426,  0.333333373
   2763,   9.26534176,   1.56306779,  0.333333373
   2764,   9.32104397,   1.04456294,  0.333333373
   2765,   9.35547924,  0.523158312,  0.333333373
   2766,   6.97173452,   6.95940399,  0.666666687
   2767,   8.73500061,  0.527426362,  0.333333373
   2768,   8.11573315,  0.538009107,  0.333333373
   2769,   7.49561882,  0.551566005,  0.333333373
   2770,   6.87443209,  0.565477848,  0.333333373
   2771,   6.25227785,    0.5784989,  0.333333373
   2772,   5.62927008,  0.590167105,  0.333333373
   2773,   5.00552034,  0.600326657,  0.333333373
   2774,   4.38113165,  0.608918846,  0.333333373
   2775,   3.75619435,  0.615899622,  0.333333373
   2776,   3.13079071,  0.621220469,  0.333333373
   2777,   2.50500536,  0.624847651,  0.333333373
   2778,   1.87892663,  0.626804054,  0.333333373
   2779,   1.25265241,  0.627217948,  0.333333373
   2780,  0.626299202,   0.62641412,  0.333333373
   2781,    8.7074213,     1.054407,  0.333333373
   2782,   8.09504986,   1.07554471,  0.333333373
   2783,   7.48078537,   1.10238779,  0.333333373
   2784,    6.8643136,   1.13006318,  0.333333373
   2785,   6.24588633,   1.15606773,  0.333333373
   2786,   5.62574625,   1.17942679,  0.333333373
   2787,   5.00412035,   1.19979417,  0.333333373
   2788,   4.38121367,   1.21703446,  0.333333373
   2789,   3.75720763,   1.23105371,  0.333333373
   2790,   3.13226891,   1.24175656,  0.333333373
   2791,   2.50656652,    1.2490834,  0.333333373
   2792,   1.88027859,   1.25308764,  0.333333373
   2793,   1.25359976,   1.25403905,  0.333333373
   2794,  0.626757979,   1.25260866,  0.333333373
   2795,   8.66152287,   1.57936895,  0.333333373
   2796,   8.05782986,   1.61139393,  0.333333373
   2797,   7.45083809,   1.65160656,  0.333333373
   2798,    6.8403945,   1.69310081,  0.333333373
   2799,   6.22697067,    1.7321707,  0.333333373
   2800,   5.61096239,   1.76732647,  0.333333373
   2801,   4.99272013,   1.79802191,  0.333333373
   2802,   4.37255144,   1.82403696,  0.333333373
   2803,   3.75073147,   1.84522307,  0.333333373
   2804,   3.12751293,   1.86143911,  0.333333373
   2805,   2.50314927,   1.87260258,  0.333333373
   2806,   1.87790787,   1.87880051,  0.333333373
   2807,   1.25207865,   1.88045275,  0.333333373
   2808,  0.625994325,   1.87858737,  0.333333373
   2809,   8.59417343,   2.10108113,  0.333333373
   2810,   8.00103378,   2.14439082,  0.333333373
   2811,   7.40295172,   2.19822764,  0.333333373
   2812,   6.80008316,   2.25374365,  0.333333373
   2813,   6.19317627,    2.3060751,  0.333333373
   2814,   5.58280039,   2.35322881,  0.333333373
   2815,   4.96943569,   2.39445853,  0.333333373
   2816,   4.35349798,   2.42945766,  0.333333373
   2817,   3.73535633,   2.45802212,  0.333333373
   2818,   3.11534882,   2.47996426,  0.333333373
   2819,   2.49381495,   2.49517941,  0.333333373
   2820,   1.87111127,   2.50379062,  0.333333373
   2821,   1.24762118,    2.5063715,  0.333333373
   2822,  0.623773515,   2.50431252,  0.333333373
   2823,   8.50402927,     2.618361,  0.333333373
   2824,   7.92324972,   2.67340755,  0.333333373
   2825,   7.33576775,   2.74122787,  0.333333373
   2826,   6.74212027,   2.81107879,  0.333333373
   2827,   6.14335394,   2.87696958,  0.333333373
   2828,   5.54022455,   2.93641567,  0.333333373
   2829,   4.93334627,   2.98847485,  0.333333373
   2830,   4.32324648,   3.03275394,  0.333333373
   2831,    3.7103889,   3.06899357,  0.333333373
   2832,   3.09519839,   3.09695935,  0.333333373
   2833,   2.47810054,   3.11652565,  0.333333373
   2834,   1.85954034,   3.12785053,  0.333333373
   2835,   1.23999262,   3.13166404,  0.333333373
   2836,  0.619975746,   3.12972188,  0.333333373
   2837,    8.3908205,   3.13003564,  0.333333373
   2838,   7.82413483,   3.19735837,  0.333333373
   2839,   7.24893236,   3.27961349,  0.333333373
   2840,   6.66616631,   3.36420536,  0.333333373
   2841,   6.07718849,    3.4440434,  0.333333373
   2842,   5.48294687,   3.51616359,  0.333333373
   2843,    4.8841939,   3.57943225,  0.333333373
   2844,   4.28156996,   3.63337159,  0.333333373
   2845,   3.67563319,   3.67766643,  0.333333373
   2846,    3.0668962,   3.71203637,  0.333333373
   2847,   2.45587039,   3.73633313,  0.333333373
   2848,   1.84308994,    3.7507534,  0.333333373
   2849,   1.22911918,   3.75618339,  0.333333373
   2850,  0.614560902,   3.75474286,  0.333333373
   2851,   8.25476265,   3.63494325,  0.333333373
   2852,   7.70384359,   3.71517634,  0.333333373
   2853,   7.14256716,   3.81240463,  0.333333373
   2854,   6.57231903,   3.91222954,  0.333333373
   2855,   5.99476385,   4.00648737,  0.333333373
   2856,   5.41103983,   4.09174776,  0.333333373
   2857,   4.82204103,   4.16668844,  0.333333373
   2858,   4.22851896,   4.23074961,  0.333333373
   2859,   3.63112998,   4.28356123,  0.333333373
   2860,   3.03047347,   4.32479668,  0.333333373
   2861,   2.42714715,   4.35428619,  0.333333373
   2862,   1.82177305,   4.37226391,  0.333333373
   2863,    1.2150048,   4.37977219,  0.333333373
   2864,  0.607527912,   4.37929869,  0.333333373
   2865,   8.09617043,   4.13188171,  0.333333373
   2866,   7.56260347,   4.22574186,  0.333333373
   2867,   7.01685572,   4.33856916,  0.333333373
   2868,   6.46073484,   4.45420504,  0.333333373
   2869,   5.89621401,   4.56344366,  0.333333373
   2870,   5.32462168,   4.66239548,  0.333333373
   2871,   4.74698877,   4.74955797,  0.333333373
   2872,   4.16418314,   4.82428932,  0.333333373
   2873,   3.57695413,   4.88616514,  0.333333373
   2874,   2.98599052,   4.93481398,  0.333333373
   2875,   2.39197564,   4.97004414,  0.333333373
   2876,   1.79562092,   4.99212646,  0.333333373
   2877,   1.19766748,   5.00226164,  0.333333373
   2878,   0.59888345,   5.00330305,  0.333333373
   2879,   7.91529608,   4.61954165,  0.333333373
   2880,   7.40053129,    4.7278161,  0.333333373
   2881,   6.87185669,   4.85695696,  0.333333373
   2882,   6.33144999,   4.98907852,  0.333333373
   2883,   5.78156471,   5.11395264,  0.333333373
   2884,   5.22371054,   5.22724485,  0.333333373
   2885,    4.6590538,    5.3272748,  0.333333373
   2886,   4.08857298,   5.41331911,  0.333333373
   2887,   3.51311517,   5.48490286,  0.333333373
   2888,   2.93345451,   5.54160881,  0.333333373
   2889,   2.35036159,   5.58322334,  0.333333373
   2890,   1.76463664,   5.61005402,  0.333333373
   2891,   1.17710865,   5.62345934,  0.333333373
   2892,  0.588628352,   5.62666082,  0.333333373
   2893,   7.71245432,    5.0964694,  0.333333373
   2894,   7.21776581,   5.22003317,  0.333333373
   2895,   6.70763397,   5.36630487,  0.333333373
   2896,   6.18449783,   5.51569128,  0.333333373
   2897,   5.65083885,   5.65696287,  0.333333373
   2898,   5.10832548,   5.78534937,  0.333333373
   2899,   4.55825233,   5.89899635,  0.333333373
   2900,    4.0017066,   5.99710464,  0.333333373
   2901,    3.4396286,   6.07914543,  0.333333373
   2902,   2.87288022,   6.14465666,  0.333333373
   2903,   2.30231929,   6.19340372,  0.333333373
   2904,   1.72883332,   6.22573233,  0.333333373
   2905,   1.15334034,   6.24315691,  0.333333373
   2906,  0.576773226,   6.24926758,  0.333333373
   2907,   7.48879623,   5.56094599,  0.333333373
   2908,   7.01529074,   5.70084906,  0.333333373
   2909,   6.52507019,   5.86521387,  0.333333373
   2910,   6.02068949,   6.03276873,  0.333333373
   2911,   5.50478125,   6.19131517,  0.333333373
   2912,   4.97914648,   6.33566475,  0.333333373
   2913,   4.44519806,    6.4637928,  0.333333373
   2914,   3.90412903,   6.57482719,  0.333333373
   2915,   3.35697246,   6.66818619,  0.333333373
   2916,   2.80467725,   6.74336481,  0.333333373
   2917,   2.24818707,   6.80010843,  0.333333373
   2918,   1.68847859,   6.83879852,  0.333333373
   2919,   1.12655842,   6.86110878,  0.333333373
   2920,  0.563432276,   6.87099838,  0.333333373
   2921,   7.24949837,   6.01005507,  0.333333373
   2922,   6.79891777,   6.16754961,  0.333333373
   2923,   6.32999611,   6.35112906,  0.333333373
   2924,    5.8455863,   6.53791189,  0.333333373
   2925,   5.34856176,   6.71478271,  0.333333373
   2926,   4.84090757,   6.87614679,  0.333333373
   2927,   4.32417059,   7.01981735,  0.333333373
   2928,   3.79965019,   7.14484072,  0.333333373
   2929,   3.26847267,   7.25058174,  0.333333373
   2930,   2.73167491,   7.33649588,  0.333333373
   2931,   2.19028926,   7.40231466,  0.333333373
   2932,   1.64538383,   7.44846487,  0.333333373
   2933,   1.09805167,   7.47677469,  0.333333373
   2934,  0.549340069,   7.49155998,  0.333333373
   2935,   7.01408386,   6.43606615,  0.333333373
   2936,   6.59049606,    6.6127243,  0.333333373
   2937,   6.14378977,   6.81726313,  0.333333373
   2938,   5.67920542,   7.02496195,  0.333333373
   2939,   5.20061827,   7.22179365,  0.333333373
   2940,   4.71040297,   7.40179825,  0.333333373
   2941,   4.21027517,   7.56262827,  0.333333373
   2942,   3.70163798,   7.70324278,  0.333333373
   2943,   3.18571115,    7.8229661,  0.333333373
   2944,   2.66362834,   7.92124796,  0.333333373
   2945,   2.13651776,   7.99785042,  0.333333373
   2946,   1.60554028,    8.0532465,  0.333333373
   2947,   1.07186592,   8.08934498,  0.333333373
   2948,  0.536453784,   8.11077023,  0.333333373
   2949,    6.8184433,   6.82345772,  0.333333373
   2950,    6.4267292,   7.02613783,  0.333333373
   2951,    6.0004673,   7.25648689,  0.333333373
   2952,   5.55262518,   7.48860598,  0.333333373
   2953,   5.08923149,   7.70815134,  0.333333373
   2954,   4.61320543,   7.90924692,  0.333333373
   2955,   4.12638235,   8.08957577,  0.333333373
   2956,   3.63022542,   8.24808502,  0.333333373
   2957,   3.12603307,   8.38411236,  0.333333373
   2958,   2.61503482,   8.49716282,  0.333333373
   2959,     2.098454,   8.58704662,  0.333333373
   2960,   1.57753646,   8.65418148,  0.333333373
   2961,   1.05347717,   8.70037937,  0.333333373
   2962,  0.527352095,   8.72986317,  0.333333373
   2963,  0.521114349,   9.35560894,  0.666666687
   2964,   1.04198372,   9.32017994,  0.666666687
   2965,   1.56077099,   9.26332283,  0.666666687
   2966,   2.07599092,   9.18269444,  0.666666687
   2967,   2.58627415,   9.07745457,  0.666666687
   2968,   3.09030437,   8.94750977,  0.666666687
   2969,    3.5867939,   8.79311275,  0.666666687
   2970,   4.07444429,   8.61463261,  0.666666687
   2971,   4.55192423,   8.41247177,  0.666666687
   2972,   5.01786757,    8.1871233,  0.666666687
   2973,    5.4708581,   7.93957186,  0.666666687
   2974,   5.90928841,   7.67299652,  0.666666687
   2975,   6.32603455,   7.40074682,  0.666666687
   2976,   6.70013952,   7.14929771,  0.666666687
   2977,   7.15937042,   6.68861151,  0.666666687
   2978,   7.40955496,    6.3206501,  0.666666687
   2979,   7.67792177,   5.90954018,  0.666666687
   2980,   7.94116163,   5.47413206,  0.666666687
   2981,   8.18739414,   5.02192688,  0.666666687
   2982,    8.4122858,   4.55616236,  0.666666687
   2983,   8.61428452,   4.07872248,  0.666666687
   2984,   8.79269123,   3.59109211,  0.666666687
   2985,   8.94700623,   3.09461236,  0.666666687
   2986,   9.07680035,   2.59057117,  0.666666687
   2987,   9.18181705,   2.08024573,  0.666666687
   2988,   9.26215744,   1.56491005,  0.666666687
   2989,   9.31878567,   1.04565799,  0.666666687
   2990,   9.35431767,  0.523615062,  0.666666687
   2991,  0.626495659,  0.626532018,  0.666666687
   2992,  0.627123535,    1.2528615,  0.666666687
   2993,  0.626490593,   1.87899172,  0.666666687
   2994,  0.624361217,     2.504879,  0.666666687
   2995,  0.620621622,   3.13045573,  0.666666687
   2996,   0.61524266,   3.75564647,  0.666666687
   2997,    0.6082353,     4.380373,  0.666666687
   2998,   0.59961462,   5.00455141,  0.666666687
   2999,  0.589384496,   5.62808609,  0.666666687
   3000,  0.577547312,   6.25087309,  0.666666687
   3001,  0.564170897,   6.87279367,  0.666666687
   3002,   0.54975152,   7.49362183,  0.666666687
   3003,  0.536163092,   8.11301422,  0.666666687
   3004,  0.526613891,   8.73172092,  0.666666687
   3005,    1.2528578,   0.62725848,  0.666666687
   3006,   1.25399661,   1.25414407,  0.666666687
   3007,   1.25263155,   1.88064146,  0.666666687
   3008,   1.24828839,   2.50665569,  0.666666687
   3009,    1.2407378,   3.13205028,  0.666666687
   3010,   1.22991574,    3.7566731,  0.666666687
   3011,   1.21583748,   4.38036871,  0.666666687
   3012,   1.19853222,   5.00296688,  0.666666687
   3013,   1.17800605,   5.62427711,  0.666666687
   3014,   1.15426576,    6.2440896,  0.666666687
   3015,   1.12746108,   6.86216974,  0.666666687
   3016,   1.09867871,   7.47803068,  0.666666687
   3017,   1.07182562,   8.09085369,  0.666666687
   3018,    1.0529741,   8.70175076,  0.666666687
   3019,   1.87906969,  0.626737833,  0.666666687
   3020,   1.88057125,   1.25297058,  0.666666687
   3021,   1.87833059,   1.87864387,  0.666666687
   3022,   1.87163627,   2.50360179,  0.666666687
   3023,    1.8601402,   3.12763333,  0.666666687
   3024,   1.84374249,   3.75051022,  0.666666687
   3025,   1.82246304,    4.3719964,  0.666666687
   3026,   1.79634154,   4.99183512,  0.666666687
   3027,   1.76538754,   5.60974169,  0.666666687
   3028,   1.72961366,   6.22540283,  0.666666687
   3029,   1.68925703,   6.83846331,  0.666666687
   3030,   1.64603341,   7.44815207,  0.666666687
   3031,   1.60587072,   8.05308056,  0.666666687
   3032,   1.57757866,    8.6542387,  0.666666687
   3033,    2.5050633,  0.624701142,  0.666666687
   3034,    2.5067091,   1.24879527,  0.666666687
   3035,   2.50337672,   1.87217426,  0.666666687
   3036,   2.49411607,   2.49461293,  0.666666687
   3037,    2.4784615,   3.11582255,  0.666666687
   3038,   2.45627689,   3.73549461,  0.666666687
   3039,   2.42758465,   4.35331297,  0.666666687
   3040,   2.39243627,   4.96893501,  0.666666687
   3041,   2.35084391,   5.58198023,  0.666666687
   3042,   2.30282617,   6.19203043,  0.666666687
   3043,   2.24871087,   6.79861212,  0.666666687
   3044,   2.19085383,   7.40066862,  0.666666687
   3045,    2.1371696,   7.99620676,  0.666666687
   3046,   2.09909797,   8.58583641,  0.666666687
   3047,   3.13075638,  0.621025622,  0.666666687
   3048,   3.13224721,   1.24136317,  0.666666687
   3049,   3.12752342,   1.86084116,  0.666666687
   3050,   3.11539912,   2.47915959,  0.666666687
   3051,   3.09528923,   3.09594822,  0.666666687
   3052,   3.06702042,   3.71081901,  0.666666687
   3053,   3.03061986,   4.32337332,  0.666666687
   3054,   2.98614907,   4.93318033,  0.666666687
   3055,    2.9336226,   5.53976679,  0.666666687
   3056,   2.87306571,   6.14261007,  0.666666687
   3057,   2.80489755,     6.741117,  0.666666687
   3058,   2.73211217,   7.33396149,  0.666666687
   3059,   2.66457176,   7.91855812,  0.666666687
   3060,   2.61626601,   8.49501133,  0.666666687
   3061,   3.75606728,  0.615683794,  0.666666687
   3062,   3.75702024,   1.23061216,  0.666666687
   3063,   3.75052357,   1.84454262,  0.666666687
   3064,   3.73515344,   2.45709753,  0.666666687
   3065,   3.71020722,   3.06782436,  0.666666687
   3066,   3.67547441,   3.67625308,  0.666666687
   3067,    3.6309855,   4.28190184,  0.666666687
   3068,   3.57681179,   4.88425684,  0.666666687
   3069,   3.51297092,   5.48274422,  0.666666687
   3070,   3.43949437,   6.07673979,  0.666666687
   3071,   3.35689425,   6.66553354,  0.666666687
   3072,   3.26879048,   7.24754572,  0.666666687
   3073,   3.18695521,   7.81962442,  0.666666687
   3074,   3.12785339,   8.38131523,  0.666666687
   3075,   4.38091469,  0.608697951,  0.666666687
   3076,   4.38086605,   1.21657526,  0.666666687
   3077,    4.3721323,   1.82332182,  0.666666687
   3078,   4.35305214,     2.428478,  0.666666687
   3079,    4.3228054,   3.03150845,  0.666666687
   3080,   4.28114414,   3.63186073,  0.666666687
   3081,   4.22810221,   4.22897148,  0.666666687
   3082,   4.16376209,   4.82223892,  0.666666687
   3083,    4.0881424,   5.41099405,  0.666666687
   3084,   4.00128269,   5.99450874,  0.666666687
   3085,   3.90378404,   6.57195807,  0.666666687
   3086,   3.79988313,   7.14151764,  0.666666687
   3087,   3.70321178,   7.69948006,  0.666666687
   3088,   3.63264871,    8.2448225,  0.666666687
   3089,   5.00521421,  0.600096345,  0.666666687
   3090,    5.0036149,   1.19930863,  0.666666687
   3091,   4.99209356,   1.79725742,  0.666666687
   3092,   4.96875238,   2.39340258,  0.666666687
   3093,   4.93265343,    2.9871254,  0.666666687
   3094,   4.88351202,   3.57778955,  0.666666687
   3095,   4.82136631,   4.16475058,  0.666666687
   3096,   4.74630737,    4.7473197,  0.666666687
   3097,    4.6583581,   5.32473135,  0.666666687
   3098,    4.5575633,   5.89615297,  0.666666687
   3099,   4.44461346,   6.46064568,  0.666666687
   3100,   4.32434511,   7.01614428,  0.666666687
   3101,   4.21219635,   7.55838728,  0.666666687
   3102,   4.12941408,   8.08581066,  0.666666687
   3103,   5.62887239,   0.58989948,  0.666666687
   3104,   5.62507963,   1.17885339,  0.666666687
   3105,   5.61012506,   1.76641333,  0.666666687
   3106,   5.58187819,   2.35195923,  0.666666687
   3107,   5.53928041,    2.9347856,  0.666666687
   3108,    5.4820118,   3.51417351,  0.666666687
   3109,   5.41011381,     4.089396,  0.666666687
   3110,   5.32368851,   4.65967655,  0.666666687
   3111,   5.22276258,   5.22415543,  0.666666687
   3112,   5.10738611,   5.78189421,  0.666666687
   3113,   4.97833633,   6.33184004,  0.666666687
   3114,   4.84103251,   6.87168932,  0.666666687
   3115,   4.71267366,   7.39664268,  0.666666687
   3116,   4.61684752,   7.90463305,  0.666666687
   3117,   6.25178576,  0.578127384,  0.666666687
   3118,   6.24505234,    1.1552614,  0.666666687
   3119,   6.22591734,   1.73087978,  0.666666687
   3120,   6.19201279,   2.30427527,  0.666666687
   3121,   6.14216375,   2.87465572,  0.666666687
   3122,   6.07601404,   3.44121766,  0.666666687
   3123,   5.99360895,   4.00315094,  0.666666687
   3124,    5.8950634,   4.55959177,  0.666666687
   3125,   5.78040552,   5.10958433,  0.666666687
   3126,   5.64969492,   5.65208483,  0.666666687
   3127,   5.50379372,   6.18592787,  0.666666687
   3128,   5.34868574,    6.7085824,  0.666666687
   3129,   5.20329905,   7.21475077,  0.666666687
   3130,   5.09357214,   7.70190573,  0.666666687
   3131,   6.87383986,  0.564868033,  0.666666687
   3132,   6.86330223,   1.12874222,  0.666666687
   3133,   6.83911753,   1.69099903,  0.666666687
   3134,   6.79868174,   2.25083041,  0.666666687
   3135,   6.74070597,   2.80735111,  0.666666687
   3136,   6.66479826,   3.35967064,  0.666666687
   3137,   6.57100868,   3.90689373,  0.666666687
   3138,    6.4594636,   4.44807005,  0.666666687
   3139,   6.33019972,   4.98214674,  0.666666687
   3140,   6.18328524,   5.50797653,  0.666666687
   3141,   6.01966858,   6.02428055,  0.666666687
   3142,   5.84588432,   6.52832031,  0.666666687
   3143,   5.68257952,   7.01436377,  0.666666687
   3144,   5.55804205,   7.47935104,  0.666666687
   3145,   7.49481964,  0.550614417,  0.666666687
   3146,   7.47937965,    1.1003927,  0.666666687
   3147,   7.44903183,   1.64849842,  0.666666687
   3148,   7.40094376,   2.19397759,  0.666666687
   3149,   7.33372307,   2.73583889,  0.666666687
   3150,   7.24694586,   3.27310061,  0.666666687
   3151,   7.14066315,   3.80478096,  0.666666687
   3152,   7.01501322,   4.32983875,  0.666666687
   3153,   6.87004662,   4.84712553,  0.666666687
   3154,   6.70586014,   5.35539293,  0.666666687
   3155,   6.52351236,   5.85324478,  0.666666687
   3156,   6.33010054,   6.33774424,  0.666666687
   3157,   6.14791298,   6.80271673,  0.666666687
   3158,     6.007689,   7.24415779,  0.666666687
   3159,   8.11428547,  0.537211001,  0.666666687
   3160,   8.09244156,   1.07391775,  0.666666687
   3161,     8.054389,   1.60886705,  0.666666687
   3162,   7.99707651,   2.14093232,  0.666666687
   3163,   7.91903353,   2.66901803,  0.666666687
   3164,    7.8198123,   3.19204974,  0.666666687
   3165,   7.69946051,   3.70895123,  0.666666687
   3166,   7.55813599,   4.21858931,  0.666666687
   3167,   7.39594603,   4.71972418,  0.666666687
   3168,   7.21309423,   5.21101236,  0.666666687
   3169,   7.01087427,     5.690907,  0.666666687
   3170,   6.79695845,   6.15615797,  0.666666687
   3171,   6.59503174,    6.5999465,  0.666666687
   3172,   6.43542719,   7.01506472,  0.666666687
   3173,   8.73253059,  0.527912796,  0.666666687
   3174,   8.70297909,   1.05527353,  0.666666687
   3175,   8.65556812,   1.58056021,  0.666666687
   3176,   8.58714008,   2.10253549,  0.666666687
   3177,   8.49626255,   2.62005162,  0.666666687
   3178,   8.38252735,   3.13194466,  0.666666687
   3179,   8.24601555,   3.63703728,  0.666666687
   3180,    8.0869627,   4.13410902,  0.666666687
   3181,   7.90563011,   4.62184858,  0.666666687
   3182,   7.70250177,   5.09881544,  0.666666687
   3183,   7.47926188,   5.56320333,  0.666666687
   3184,   7.24393892,   6.01124907,  0.666666687
   3185,   7.01674032,   6.43492746,  0.666666687
   3186,   6.82664108,   6.82099724,  0.666666687
   3187,   11.5258493,  0.604044199,  0.666666687
   3188,   11.5258493,  0.604044199,  0.333333343
   3189,    13.065403,  0.684728742,  0.666666687
   3190,    13.065403,  0.684728742,  0.333333343
   3191,   14.6049566,  0.765413344,  0.666666687
   3192,   14.6049566,  0.765413344,  0.333333343
   3193,   16.1445103,  0.846097946,  0.666666687
   3194,   16.1445103,  0.846097946,  0.333333343
   3195,   17.6840649,  0.926782608,  0.666666687
   3196,   17.6840649,  0.926782608,  0.333333343
   3197,   19.2236195,   1.00746715,  0.666666687
   3198,   19.2236195,   1.00746715,  0.333333343
   3199,   20.7631721,   1.08815169,  0.666666687
   3200,   20.7631721,   1.08815169,  0.333333343
   3201,   22.3027267,   1.16883636,  0.666666687
   3202,   22.3027267,   1.16883636,  0.333333343
   3203,   23.8422794,    1.2495209,  0.666666687
   3204,   23.8422794,    1.2495209,  0.333333343
   3205,    25.381834,   1.33020556,  0.666666687
   3206,    25.381834,   1.33020556,  0.333333343
   3207,   26.9213886,   1.41089022,  0.666666687
   3208,   26.9213886,   1.41089022,  0.333333343
   3209,   28.4609413,   1.49157476,  0.666666687
   3210,   28.4609413,   1.49157476,  0.333333343
   3211,   30.0004959,   1.57225931,  0.666666687
   3212,   30.0004959,   1.57225931,  0.333333343
   3213,   31.5400505,   1.65294397,  0.666666687
   3214,   31.5400505,   1.65294397,  0.333333343
   3215,   33.0796051,   1.73362851,  0.666666687
   3216,   33.0796051,   1.73362851,  0.333333343
   3217,   34.6191597,   1.81431317,  0.666666687
   3218,   34.6191597,   1.81431317,  0.333333343
   3219,   36.1587105,   1.89499772,  0.666666687
   3220,   36.1587105,   1.89499772,  0.333333343
   3221,   37.6982651,   1.97568238,  0.666666687
   3222,   37.6982651,   1.97568238,  0.333333343
   3223,   39.2378197,   2.05636692,  0.666666687
   3224,   39.2378197,   2.05636692,  0.333333343
   3225,   40.7773705,   2.13705158,  0.666666687
   3226,   40.7773705,   2.13705158,  0.333333343
   3227,    42.316925,   2.21773624,  0.666666687
   3228,    42.316925,   2.21773624,  0.333333343
   3229,   43.8564835,   2.29842091,  0.666666687
   3230,   43.8564835,   2.29842091,  0.333333343
   3231,   45.3960342,   2.37910533,  0.666666687
   3232,   45.3960342,   2.37910533,  0.333333343
   3233,   46.9355888,   2.45978999,  0.666666687
   3234,   46.9355888,   2.45978999,  0.333333343
   3235,   48.4751434,   2.54047465,  0.666666687
   3236,   48.4751434,   2.54047465,  0.333333343
   3237,   50.0146942,   2.62115908,  0.666666687
   3238,   50.0146942,   2.62115908,  0.333333343
   3239,   51.5542488,   2.70184374,  0.666666687
   3240,   51.5542488,   2.70184374,  0.333333343
   3241,   53.0938034,    2.7825284,  0.666666687
   3242,   53.0938034,    2.7825284,  0.333333343
   3243,    54.633358,   2.86321282,  0.666666687
   3244,    54.633358,   2.86321282,  0.333333343
   3245,   11.4784403,    1.2064327,  0.666666687
   3246,   11.4784403,    1.2064327,  0.333333343
   3247,   13.0116615,   1.36758065,  0.666666687
   3248,   13.0116615,   1.36758065,  0.333333343
   3249,   14.5448828,   1.52872872,  0.666666687
   3250,   14.5448828,   1.52872872,  0.333333343
   3251,    16.078104,   1.68987679,  0.666666687
   3252,    16.078104,   1.68987679,  0.333333343
   3253,   17.6113262,   1.85102499,  0.666666687
   3254,   17.6113262,   1.85102499,  0.333333343
   3255,   19.1445465,   2.01217294,  0.666666687
   3256,   19.1445465,   2.01217294,  0.333333343
   3257,   20.6777668,   2.17332101,  0.666666687
   3258,   20.6777668,   2.17332101,  0.333333343
   3259,    22.210989,   2.33446908,  0.666666687
   3260,    22.210989,   2.33446908,  0.333333343
   3261,   23.7442112,   2.49561715,  0.666666687
   3262,   23.7442112,   2.49561715,  0.333333343
   3263,   25.2774315,   2.65676498,  0.666666687
   3264,   25.2774315,   2.65676498,  0.333333343
   3265,   26.8106537,   2.81791329,  0.666666687
   3266,   26.8106537,   2.81791329,  0.333333343
   3267,    28.343874,   2.97906113,  0.666666687
   3268,    28.343874,   2.97906113,  0.333333343
   3269,   29.8770943,    3.1402092,  0.666666687
   3270,   29.8770943,    3.1402092,  0.333333343
   3271,   31.4103165,   3.30135727,  0.666666687
   3272,   31.4103165,   3.30135727,  0.333333343
   3273,   32.9435387,   3.46250534,  0.666666687
   3274,   32.9435387,   3.46250534,  0.333333343
   3275,   34.4767609,   3.62365341,  0.666666687
   3276,   34.4767609,   3.62365341,  0.333333343
   3277,   36.0099792,   3.78480124,  0.666666687
   3278,   36.0099792,   3.78480124,  0.333333343
   3279,   37.5432014,   3.94594955,  0.666666687
   3280,   37.5432014,   3.94594955,  0.333333343
   3281,   39.0764236,   4.10709763,  0.666666687
   3282,   39.0764236,   4.10709763,  0.333333343
   3283,    40.609642,   4.26824522,  0.666666687
   3284,    40.609642,   4.26824522,  0.333333343
   3285,   42.1428642,   4.42939377,  0.666666687
   3286,   42.1428642,   4.42939377,  0.333333343
   3287,   43.6760864,   4.59054184,  0.666666687
   3288,   43.6760864,   4.59054184,  0.333333343
   3289,   45.2093048,   4.75168943,  0.666666687
   3290,   45.2093048,   4.75168943,  0.333333343
   3291,   46.7425308,   4.91283798,  0.666666687
   3292,   46.7425308,   4.91283798,  0.333333343
   3293,    48.275753,   5.07398605,  0.666666687
   3294,    48.275753,   5.07398605,  0.333333343
   3295,   49.8089714,   5.23513365,  0.666666687
   3296,   49.8089714,   5.23513365,  0.333333343
   3297,   51.3421936,   5.39628172,  0.666666687
   3298,   51.3421936,   5.39628172,  0.333333343
   3299,   52.8754158,   5.55743027,  0.666666687
   3300,   52.8754158,   5.55743027,  0.333333343
   3301,   54.4086342,   5.71857786,  0.666666687
   3302,   54.4086342,   5.71857786,  0.333333343
   3303,   11.3995695,   1.80551445,  0.666666687
   3304,   11.3995695,   1.80551445,  0.333333343
   3305,   12.9222555,   2.04668427,  0.666666687
   3306,   12.9222555,   2.04668427,  0.333333343
   3307,   14.4449415,   2.28785396,  0.666666687
   3308,   14.4449415,   2.28785396,  0.333333343
   3309,   15.9676275,   2.52902365,  0.666666687
   3310,   15.9676275,   2.52902365,  0.333333343
   3311,   17.4903145,   2.77019382,  0.666666687
   3312,   17.4903145,   2.77019382,  0.333333343
   3313,   19.0130005,   3.01136351,  0.666666687
   3314,   19.0130005,   3.01136351,  0.333333343
   3315,   20.5356865,    3.2525332,  0.666666687
   3316,   20.5356865,    3.2525332,  0.333333343
   3317,   22.0583744,   3.49370313,  0.666666687
   3318,   22.0583744,   3.49370313,  0.333333343
   3319,   23.5810585,   3.73487282,  0.666666687
   3320,   23.5810585,   3.73487282,  0.333333343
   3321,   25.1037445,   3.97604251,  0.666666687
   3322,   25.1037445,   3.97604251,  0.333333343
   3323,   26.6264324,   4.21721268,  0.666666687
   3324,   26.6264324,   4.21721268,  0.333333343
   3325,   28.1491184,   4.45838213,  0.666666687
   3326,   28.1491184,   4.45838213,  0.333333343
   3327,   29.6718025,   4.69955206,  0.666666687
   3328,   29.6718025,   4.69955206,  0.333333343
   3329,   31.1944904,   4.94072199,  0.666666687
   3330,   31.1944904,   4.94072199,  0.333333343
   3331,   32.7171745,   5.18189144,  0.666666687
   3332,   32.7171745,   5.18189144,  0.333333343
   3333,   34.2398643,   5.42306185,  0.666666687
   3334,   34.2398643,   5.42306185,  0.333333343
   3335,   35.7625465,   5.66423082,  0.666666687
   3336,   35.7625465,   5.66423082,  0.333333343
   3337,   37.2852364,   5.90540123,  0.666666687
   3338,   37.2852364,   5.90540123,  0.333333343
   3339,   38.8079224,   6.14657116,  0.666666687
   3340,   38.8079224,   6.14657116,  0.333333343
   3341,   40.3306046,   6.38774061,  0.666666687
   3342,   40.3306046,   6.38774061,  0.333333343
   3343,   41.8532944,   6.62891054,  0.666666687
   3344,   41.8532944,   6.62891054,  0.333333343
   3345,   43.3759804,   6.87008047,  0.666666687
   3346,   43.3759804,   6.87008047,  0.333333343
   3347,   44.8986664,   7.11124992,  0.666666687
   3348,   44.8986664,   7.11124992,  0.333333343
   3349,   46.4213524,   7.35241985,  0.666666687
   3350,   46.4213524,   7.35241985,  0.333333343
   3351,   47.9440384,   7.59358978,  0.666666687
   3352,   47.9440384,   7.59358978,  0.333333343
   3353,   49.4667244,   7.83475924,  0.666666687
   3354,   49.4667244,   7.83475924,  0.333333343
   3355,   50.9894104,   8.07592964,  0.666666687
   3356,   50.9894104,   8.07592964,  0.333333343
   3357,   52.5120964,   8.31709957,  0.666666687
   3358,   52.5120964,   8.31709957,  0.333333343
   3359,   54.0347824,   8.55826855,  0.666666687
   3360,   54.0347824,   8.55826855,  0.333333343
   3361,   11.2894535,   2.39964747,  0.666666687
   3362,   11.2894535,   2.39964747,  0.333333343
   3363,    12.797431,   2.72017789,  0.666666687
   3364,    12.797431,   2.72017789,  0.333333343
   3365,   14.3054085,   3.04070854,  0.666666687
   3366,   14.3054085,   3.04070854,  0.333333343
   3367,    15.813386,   3.36123896,  0.666666687
   3368,    15.813386,   3.36123896,  0.333333343
   3369,   17.3213634,   3.68176961,  0.666666687
   3370,   17.3213634,   3.68176961,  0.333333343
   3371,   18.8293419,   4.00230026,  0.666666687
   3372,   18.8293419,   4.00230026,  0.333333343
   3373,   20.3373184,   4.32283068,  0.666666687
   3374,   20.3373184,   4.32283068,  0.333333343
   3375,   21.8452969,   4.64336109,  0.666666687
   3376,   21.8452969,   4.64336109,  0.333333343
   3377,   23.3532734,   4.96389151,  0.666666687
   3378,   23.3532734,   4.96389151,  0.333333343
   3379,   24.8612518,   5.28442192,  0.666666687
   3380,   24.8612518,   5.28442192,  0.333333343
   3381,   26.3692303,   5.60495281,  0.666666687
   3382,   26.3692303,   5.60495281,  0.333333343
   3383,   27.8772068,   5.92548323,  0.666666687
   3384,   27.8772068,   5.92548323,  0.333333343
   3385,   29.3851833,   6.24601364,  0.666666687
   3386,   29.3851833,   6.24601364,  0.333333343
   3387,   30.8931618,   6.56654453,  0.666666687
   3388,   30.8931618,   6.56654453,  0.333333343
   3389,   32.4011383,   6.88707495,  0.666666687
   3390,   32.4011383,   6.88707495,  0.333333343
   3391,   33.9091187,   7.20760536,  0.666666687
   3392,   33.9091187,   7.20760536,  0.333333343
   3393,   35.4170914,   7.52813578,  0.666666687
   3394,   35.4170914,   7.52813578,  0.333333343
   3395,   36.9250717,   7.84866619,  0.666666687
   3396,   36.9250717,   7.84866619,  0.333333343
   3397,   38.4330521,   8.16919708,  0.666666687
   3398,   38.4330521,   8.16919708,  0.333333343
   3399,   39.9410248,   8.48972702,  0.666666687
   3400,   39.9410248,   8.48972702,  0.333333343
   3401,   41.4490051,   8.81025791,  0.666666687
   3402,   41.4490051,   8.81025791,  0.333333343
   3403,   42.9569817,    9.1307888,  0.666666687
   3404,   42.9569817,    9.1307888,  0.333333343
   3405,   44.4649582,   9.45131874,  0.666666687
   3406,   44.4649582,   9.45131874,  0.333333343
   3407,   45.9729385,   9.77184963,  0.666666687
   3408,   45.9729385,   9.77184963,  0.333333343
   3409,   47.4809151,   10.0923805,  0.666666687
   3410,   47.4809151,   10.0923805,  0.333333343
   3411,   48.9888916,   10.4129105,  0.666666687
   3412,   48.9888916,   10.4129105,  0.333333343
   3413,   50.4968681,   10.7334414,  0.666666687
   3414,   50.4968681,   10.7334414,  0.333333343
   3415,   52.0048485,   11.0539722,  0.666666687
   3416,   52.0048485,   11.0539722,  0.333333343
   3417,    53.512825,   11.3745022,  0.666666687
   3418,    53.512825,   11.3745022,  0.333333343
   3419,   11.1483946,   2.98720312,  0.666666687
   3420,   11.1483946,   2.98720312,  0.333333343
   3421,   12.6375294,   3.38621569,  0.666666687
   3422,   12.6375294,   3.38621569,  0.333333343
   3423,   14.1266651,   3.78522849,  0.666666687
   3424,   14.1266651,   3.78522849,  0.333333343
   3425,   15.6157999,   4.18424129,  0.666666687
   3426,   15.6157999,   4.18424129,  0.333333343
   3427,   17.1049366,   4.58325386,  0.666666687
   3428,   17.1049366,   4.58325386,  0.333333343
   3429,   18.5940723,   4.98226643,  0.666666687
   3430,   18.5940723,   4.98226643,  0.333333343
   3431,   20.0832081,   5.38127899,  0.666666687
   3432,   20.0832081,   5.38127899,  0.333333343
   3433,   21.5723438,   5.78029203,  0.666666687
   3434,   21.5723438,   5.78029203,  0.333333343
   3435,   23.0614796,    6.1793046,  0.666666687
   3436,   23.0614796,    6.1793046,  0.333333343
   3437,   24.5506134,   6.57831717,  0.666666687
   3438,   24.5506134,   6.57831717,  0.333333343
   3439,   26.0397511,   6.97733021,  0.666666687
   3440,   26.0397511,   6.97733021,  0.333333343
   3441,   27.5288868,   7.37634277,  0.666666687
   3442,   27.5288868,   7.37634277,  0.333333343
   3443,   29.0180206,   7.77535534,  0.666666687
   3444,   29.0180206,   7.77535534,  0.333333343
   3445,   30.5071583,    8.1743679,  0.666666687
   3446,   30.5071583,    8.1743679,  0.333333343
   3447,   31.9962921,   8.57338047,  0.666666687
   3448,   31.9962921,   8.57338047,  0.333333343
   3449,   33.4854317,   8.97239399,  0.666666687
   3450,   33.4854317,   8.97239399,  0.333333343
   3451,   34.9745636,    9.3714056,  0.666666687
   3452,   34.9745636,    9.3714056,  0.333333343
   3453,   36.4636993,   9.77041912,  0.666666687
   3454,   36.4636993,   9.77041912,  0.333333343
   3455,   37.9528351,   10.1694317,  0.666666687
   3456,   37.9528351,   10.1694317,  0.333333343
   3457,   39.4419708,   10.5684443,  0.666666687
   3458,   39.4419708,   10.5684443,  0.333333343
   3459,   40.9311066,   10.9674568,  0.666666687
   3460,   40.9311066,   10.9674568,  0.333333343
   3461,   42.4202423,   11.3664703,  0.666666687
   3462,   42.4202423,   11.3664703,  0.333333343
   3463,   43.9093781,   11.7654819,  0.666666687
   3464,   43.9093781,   11.7654819,  0.333333343
   3465,   45.3985138,   12.1644955,  0.666666687
   3466,   45.3985138,   12.1644955,  0.333333343
   3467,   46.8876495,    12.563508,  0.666666687
   3468,   46.8876495,    12.563508,  0.333333343
   3469,   48.3767853,   12.9625206,  0.666666687
   3470,   48.3767853,   12.9625206,  0.333333343
   3471,    49.865921,   13.3615332,  0.666666687
   3472,    49.865921,   13.3615332,  0.333333343
   3473,   51.3550568,   13.7605467,  0.666666687
   3474,   51.3550568,   13.7605467,  0.333333343
   3475,   52.8441925,   14.1595583,  0.666666687
   3476,   52.8441925,   14.1595583,  0.333333343
   3477,    10.976778,   3.56657124,  0.666666687
   3478,    10.976778,   3.56657124,  0.333333343
   3479,   12.4429893,   4.04297209,  0.666666687
   3480,   12.4429893,   4.04297209,  0.333333343
   3481,   13.9092016,   4.51937342,  0.666666687
   3482,   13.9092016,   4.51937342,  0.333333343
   3483,   15.3754129,   4.99577475,  0.666666687
   3484,   15.3754129,   4.99577475,  0.333333343
   3485,   16.8416271,   5.47217607,  0.666666687
   3486,   16.8416271,   5.47217607,  0.333333343
   3487,   18.3078384,   5.94857693,  0.666666687
   3488,   18.3078384,   5.94857693,  0.333333343
   3489,   19.7740498,   6.42497826,  0.666666687
   3490,   19.7740498,   6.42497826,  0.333333343
   3491,    21.240263,   6.90137959,  0.666666687
   3492,    21.240263,   6.90137959,  0.333333343
   3493,   22.7064743,   7.37778091,  0.666666687
   3494,   22.7064743,   7.37778091,  0.333333343
   3495,   24.1726856,   7.85418177,  0.666666687
   3496,   24.1726856,   7.85418177,  0.333333343
   3497,   25.6388988,   8.33058357,  0.666666687
   3498,   25.6388988,   8.33058357,  0.333333343
   3499,   27.1051102,   8.80698395,  0.666666687
   3500,   27.1051102,   8.80698395,  0.333333343
   3501,   28.5713215,   9.28338528,  0.666666687
   3502,   28.5713215,   9.28338528,  0.333333343
   3503,   30.0375347,   9.75978661,  0.666666687
   3504,   30.0375347,   9.75978661,  0.333333343
   3505,   31.5037479,   10.2361879,  0.666666687
   3506,   31.5037479,   10.2361879,  0.333333343
   3507,   32.9699593,   10.7125893,  0.666666687
   3508,   32.9699593,   10.7125893,  0.333333343
   3509,   34.4361687,   11.1889896,  0.666666687
   3510,   34.4361687,   11.1889896,  0.333333343
   3511,   35.9023819,   11.6653919,  0.666666687
   3512,   35.9023819,   11.6653919,  0.333333343
   3513,   37.3685951,   12.1417933,  0.666666687
   3514,   37.3685951,   12.1417933,  0.333333343
   3515,   38.8348083,   12.6181936,  0.666666687
   3516,   38.8348083,   12.6181936,  0.333333343
   3517,   40.3010216,    13.094595,  0.666666687
   3518,   40.3010216,    13.094595,  0.333333343
   3519,   41.7672348,   13.5709963,  0.666666687
   3520,   41.7672348,   13.5709963,  0.333333343
   3521,   43.2334442,   14.0473976,  0.666666687
   3522,   43.2334442,   14.0473976,  0.333333343
   3523,   44.6996574,   14.5237989,  0.666666687
   3524,   44.6996574,   14.5237989,  0.333333343
   3525,   46.1658707,   15.0002003,  0.666666687
   3526,   46.1658707,   15.0002003,  0.333333343
   3527,   47.6320801,   15.4766006,  0.666666687
   3528,   47.6320801,   15.4766006,  0.333333343
   3529,   49.0982933,    15.953002,  0.666666687
   3530,   49.0982933,    15.953002,  0.333333343
   3531,   50.5645065,   16.4294033,  0.666666687
   3532,   50.5645065,   16.4294033,  0.333333343
   3533,   52.0307159,   16.9058037,  0.666666687
   3534,   52.0307159,   16.9058037,  0.333333343
   3535,    10.775074,   4.13616371,  0.666666687
   3536,    10.775074,   4.13616371,  0.333333343
   3537,    12.214344,   4.68864727,  0.666666687
   3538,    12.214344,   4.68864727,  0.333333343
   3539,    13.653614,   5.24113131,  0.666666687
   3540,    13.653614,   5.24113131,  0.333333343
   3541,   15.0928831,   5.79361486,  0.666666687
   3542,   15.0928831,   5.79361486,  0.333333343
   3543,   16.5321541,   6.34609938,  0.666666687
   3544,   16.5321541,   6.34609938,  0.333333343
   3545,   17.9714241,   6.89858294,  0.666666687
   3546,   17.9714241,   6.89858294,  0.333333343
   3547,   19.4106922,   7.45106649,  0.666666687
   3548,   19.4106922,   7.45106649,  0.333333343
   3549,   20.8499641,   8.00355148,  0.666666687
   3550,   20.8499641,   8.00355148,  0.333333343
   3551,   22.2892323,   8.55603504,  0.666666687
   3552,   22.2892323,   8.55603504,  0.333333343
   3553,   23.7285023,    9.1085186,  0.666666687
   3554,   23.7285023,    9.1085186,  0.333333343
   3555,   25.1677723,   9.66100311,  0.666666687
   3556,   25.1677723,   9.66100311,  0.333333343
   3557,   26.6070423,   10.2134867,  0.666666687
   3558,   26.6070423,   10.2134867,  0.333333343
   3559,   28.0463123,   10.7659702,  0.666666687
   3560,   28.0463123,   10.7659702,  0.333333343
   3561,   29.4855824,   11.3184547,  0.666666687
   3562,   29.4855824,   11.3184547,  0.333333343
   3563,   30.9248524,   11.8709383,  0.666666687
   3564,   30.9248524,   11.8709383,  0.333333343
   3565,   32.3641243,   12.4234228,  0.666666687
   3566,   32.3641243,   12.4234228,  0.333333343
   3567,   33.8033905,   12.9759054,  0.666666687
   3568,   33.8033905,   12.9759054,  0.333333343
   3569,   35.2426605,   13.5283899,  0.666666687
   3570,   35.2426605,   13.5283899,  0.333333343
   3571,   36.6819305,   14.0808744,  0.666666687
   3572,   36.6819305,   14.0808744,  0.333333343
   3573,   38.1212006,    14.633357,  0.666666687
   3574,   38.1212006,    14.633357,  0.333333343
   3575,   39.5604706,   15.1858416,  0.666666687
   3576,   39.5604706,   15.1858416,  0.333333343
   3577,   40.9997406,   15.7383261,  0.666666687
   3578,   40.9997406,   15.7383261,  0.333333343
   3579,   42.4390106,   16.2908096,  0.666666687
   3580,   42.4390106,   16.2908096,  0.333333343
   3581,   43.8782806,   16.8432941,  0.666666687
   3582,   43.8782806,   16.8432941,  0.333333343
   3583,   45.3175507,   17.3957787,  0.666666687
   3584,   45.3175507,   17.3957787,  0.333333343
   3585,   46.7568169,   17.9482613,  0.666666687
   3586,   46.7568169,   17.9482613,  0.333333343
   3587,   48.1960907,   18.5007458,  0.666666687
   3588,   48.1960907,   18.5007458,  0.333333343
   3589,   49.6353607,   19.0532303,  0.666666687
   3590,   49.6353607,   19.0532303,  0.333333343
   3591,   51.0746269,   19.6057129,  0.666666687
   3592,   51.0746269,   19.6057129,  0.333333343
   3593,   10.5438375,   4.69441891,  0.666666687
   3594,   10.5438375,   4.69441891,  0.333333343
   3595,    11.952219,   5.32147074,  0.666666687
   3596,    11.952219,   5.32147074,  0.333333343
   3597,   13.3606024,   5.94852352,  0.666666687
   3598,   13.3606024,   5.94852352,  0.333333343
   3599,   14.7689838,   6.57557535,  0.666666687
   3600,   14.7689838,   6.57557535,  0.333333343
   3601,   16.1773682,   7.20262814,  0.666666687
   3602,   16.1773682,   7.20262814,  0.333333343
   3603,   17.5857506,   7.82968044,  0.666666687
   3604,   17.5857506,   7.82968044,  0.333333343
   3605,    18.994133,   8.45673275,  0.666666687
   3606,    18.994133,   8.45673275,  0.333333343
   3607,   20.4025154,   9.08378506,  0.666666687
   3608,   20.4025154,   9.08378506,  0.333333343
   3609,   21.8108978,   9.71083736,  0.666666687
   3610,   21.8108978,   9.71083736,  0.333333343
   3611,   23.2192802,   10.3378897,  0.666666687
   3612,   23.2192802,   10.3378897,  0.333333343
   3613,   24.6276627,    10.964942,  0.666666687
   3614,   24.6276627,    10.964942,  0.333333343
   3615,   26.0360451,   11.5919943,  0.666666687
   3616,   26.0360451,   11.5919943,  0.333333343
   3617,   27.4444275,   12.2190466,  0.666666687
   3618,   27.4444275,   12.2190466,  0.333333343
   3619,   28.8528118,   12.8460989,  0.666666687
   3620,   28.8528118,   12.8460989,  0.333333343
   3621,   30.2611942,   13.4731512,  0.666666687
   3622,   30.2611942,   13.4731512,  0.333333343
   3623,   31.6695766,   14.1002045,  0.666666687
   3624,   31.6695766,   14.1002045,  0.333333343
   3625,   33.0779572,   14.7272558,  0.666666687
   3626,   33.0779572,   14.7272558,  0.333333343
   3627,   34.4863396,   15.3543081,  0.666666687
   3628,   34.4863396,   15.3543081,  0.333333343
   3629,   35.8947258,   15.9813614,  0.666666687
   3630,   35.8947258,   15.9813614,  0.333333343
   3631,   37.3031044,   16.6084118,  0.666666687
   3632,   37.3031044,   16.6084118,  0.333333343
   3633,   38.7114906,    17.235466,  0.666666687
   3634,   38.7114906,    17.235466,  0.333333343
   3635,    40.119873,   17.8625183,  0.666666687
   3636,    40.119873,   17.8625183,  0.333333343
   3637,   41.5282516,   18.4895687,  0.666666687
   3638,   41.5282516,   18.4895687,  0.333333343
   3639,   42.9366379,   19.1166229,  0.666666687
   3640,   42.9366379,   19.1166229,  0.333333343
   3641,   44.3450203,   19.7436752,  0.666666687
   3642,   44.3450203,   19.7436752,  0.333333343
   3643,   45.7533989,   20.3707256,  0.666666687
   3644,   45.7533989,   20.3707256,  0.333333343
   3645,   47.1617851,   20.9977798,  0.666666687
   3646,   47.1617851,   20.9977798,  0.333333343
   3647,   48.5701675,   21.6248322,  0.666666687
   3648,   48.5701675,   21.6248322,  0.333333343
   3649,     49.97855,   22.2518826,  0.666666687
   3650,     49.97855,   22.2518826,  0.333333343
   3651,   10.2837009,   5.23980713,  0.666666687
   3652,   10.2837009,   5.23980713,  0.333333343
   3653,   11.6573353,   5.93970871,  0.666666687
   3654,   11.6573353,   5.93970871,  0.333333343
   3655,   13.0309706,   6.63961124,  0.666666687
   3656,   13.0309706,   6.63961124,  0.333333343
   3657,   14.4046049,   7.33951283,  0.666666687
   3658,   14.4046049,   7.33951283,  0.333333343
   3659,   15.7782412,   8.03941536,  0.666666687
   3660,   15.7782412,   8.03941536,  0.333333343
   3661,   17.1518764,   8.73931694,  0.666666687
   3662,   17.1518764,   8.73931694,  0.333333343
   3663,   18.5255108,   9.43921852,  0.666666687
   3664,   18.5255108,   9.43921852,  0.333333343
   3665,    19.899147,   10.1391211,  0.666666687
   3666,    19.899147,   10.1391211,  0.333333343
   3667,   21.2727814,   10.8390236,  0.666666687
   3668,   21.2727814,   10.8390236,  0.333333343
   3669,   22.6464157,   11.5389252,  0.666666687
   3670,   22.6464157,   11.5389252,  0.333333343
   3671,    24.020052,   12.2388277,  0.666666687
   3672,    24.020052,   12.2388277,  0.333333343
   3673,   25.3936863,   12.9387293,  0.666666687
   3674,   25.3936863,   12.9387293,  0.333333343
   3675,   26.7673206,   13.6386309,  0.666666687
   3676,   26.7673206,   13.6386309,  0.333333343
   3677,   28.1409569,   14.3385334,  0.666666687
   3678,   28.1409569,   14.3385334,  0.333333343
   3679,   29.5145912,    15.038435,  0.666666687
   3680,   29.5145912,    15.038435,  0.333333343
   3681,   30.8882275,   15.7383375,  0.666666687
   3682,   30.8882275,   15.7383375,  0.333333343
   3683,   32.2618599,   16.4382381,  0.666666687
   3684,   32.2618599,   16.4382381,  0.333333343
   3685,    33.635498,   17.1381416,  0.666666687
   3686,    33.635498,   17.1381416,  0.333333343
   3687,   35.0091324,   17.8380432,  0.666666687
   3688,   35.0091324,   17.8380432,  0.333333343
   3689,   36.3827667,   18.5379448,  0.666666687
   3690,   36.3827667,   18.5379448,  0.333333343
   3691,   37.7564011,   19.2378483,  0.666666687
   3692,   37.7564011,   19.2378483,  0.333333343
   3693,   39.1300392,   19.9377499,  0.666666687
   3694,   39.1300392,   19.9377499,  0.333333343
   3695,   40.5036697,   20.6376514,  0.666666687
   3696,   40.5036697,   20.6376514,  0.333333343
   3697,   41.8773079,    21.337553,  0.666666687
   3698,   41.8773079,    21.337553,  0.333333343
   3699,   43.2509422,   22.0374565,  0.666666687
   3700,   43.2509422,   22.0374565,  0.333333343
   3701,   44.6245766,   22.7373562,  0.666666687
   3702,   44.6245766,   22.7373562,  0.333333343
   3703,   45.9982109,   23.4372597,  0.666666687
   3704,   45.9982109,   23.4372597,  0.333333343
   3705,   47.3718491,   24.1371613,  0.666666687
   3706,   47.3718491,   24.1371613,  0.333333343
   3707,   48.7454796,   24.8370628,  0.666666687
   3708,   48.7454796,   24.8370628,  0.333333343
   3709,   9.99537659,   5.77083349,  0.666666687
   3710,   9.99537659,   5.77083349,  0.333333343
   3711,   11.3304987,   6.54166651,  0.666666687
   3712,   11.3304987,   6.54166651,  0.333333343
   3713,   12.6656218,       7.3125,  0.666666687
   3714,   12.6656218,       7.3125,  0.333333343
   3715,   14.0007439,   8.08333302,  0.666666687
   3716,   14.0007439,   8.08333302,  0.333333343
   3717,   15.3358669,   8.85416698,  0.666666687
   3718,   15.3358669,   8.85416698,  0.333333343
   3719,   16.6709881,        9.625,  0.666666687
   3720,   16.6709881,        9.625,  0.333333343
   3721,   18.0061111,    10.395833,  0.666666687
   3722,   18.0061111,    10.395833,  0.333333343
   3723,   19.3412342,    11.166667,  0.666666687
   3724,   19.3412342,    11.166667,  0.333333343
   3725,   20.6763573,      11.9375,  0.666666687
   3726,   20.6763573,      11.9375,  0.333333343
   3727,   22.0114784,    12.708333,  0.666666687
   3728,   22.0114784,    12.708333,  0.333333343
   3729,   23.3466015,    13.479167,  0.666666687
   3730,   23.3466015,    13.479167,  0.333333343
   3731,   24.6817245,        14.25,  0.666666687
   3732,   24.6817245,        14.25,  0.333333343
   3733,   26.0168457,    15.020833,  0.666666687
   3734,   26.0168457,    15.020833,  0.333333343
   3735,   27.3519688,    15.791667,  0.666666687
   3736,   27.3519688,    15.791667,  0.333333343
   3737,   28.6870918,      16.5625,  0.666666687
   3738,   28.6870918,      16.5625,  0.333333343
   3739,   30.0222149,    17.333334,  0.666666687
   3740,   30.0222149,    17.333334,  0.333333343
   3741,    31.357336,    18.104166,  0.666666687
   3742,    31.357336,    18.104166,  0.333333343
   3743,   32.6924591,       18.875,  0.666666687
   3744,   32.6924591,       18.875,  0.333333343
   3745,   34.0275841,    19.645834,  0.666666687
   3746,   34.0275841,    19.645834,  0.333333343
   3747,   35.3627014,    20.416666,  0.666666687
   3748,   35.3627014,    20.416666,  0.333333343
   3749,   36.6978264,      21.1875,  0.666666687
   3750,   36.6978264,      21.1875,  0.333333343
   3751,   38.0329514,    21.958334,  0.666666687
   3752,   38.0329514,    21.958334,  0.333333343
   3753,   39.3680687,    22.729166,  0.666666687
   3754,   39.3680687,    22.729166,  0.333333343
   3755,   40.7031937,         23.5,  0.666666687
   3756,   40.7031937,         23.5,  0.333333343
   3757,   42.0383186,    24.270834,  0.666666687
   3758,   42.0383186,    24.270834,  0.333333343
   3759,    43.373436,    25.041666,  0.666666687
   3760,    43.373436,    25.041666,  0.333333343
   3761,   44.7085609,      25.8125,  0.666666687
   3762,   44.7085609,      25.8125,  0.333333343
   3763,   46.0436859,    26.583334,  0.666666687
   3764,   46.0436859,    26.583334,  0.333333343
   3765,   47.3788071,    27.354166,  0.666666687
   3766,   47.3788071,    27.354166,  0.333333343
   3767,   9.67965603,   6.28604221,  0.666666687
   3768,   9.67965603,   6.28604221,  0.333333343
   3769,   10.9726067,    7.1256938,  0.666666687
   3770,   10.9726067,    7.1256938,  0.333333343
   3771,   12.2655573,   7.96534586,  0.666666687
   3772,   12.2655573,   7.96534586,  0.333333343
   3773,    13.558507,   8.80499744,  0.666666687
   3774,    13.558507,   8.80499744,  0.333333343
   3775,   14.8514585,   9.64464951,  0.666666687
   3776,   14.8514585,   9.64464951,  0.333333343
   3777,   16.1444092,   10.4843016,  0.666666687
   3778,   16.1444092,   10.4843016,  0.333333343
   3779,   17.4373589,   11.3239527,  0.666666687
   3780,   17.4373589,   11.3239527,  0.333333343
   3781,   18.7303104,   12.1636057,  0.666666687
   3782,   18.7303104,   12.1636057,  0.333333343
   3783,   20.0232601,   13.0032568,  0.666666687
   3784,   20.0232601,   13.0032568,  0.333333343
   3785,   21.3162098,   13.8429089,  0.666666687
   3786,   21.3162098,   13.8429089,  0.333333343
   3787,   22.6091614,   14.6825609,  0.666666687
   3788,   22.6091614,   14.6825609,  0.333333343
   3789,   23.9021111,    15.522212,  0.666666687
   3790,   23.9021111,    15.522212,  0.333333343
   3791,   25.1950607,   16.3618641,  0.666666687
   3792,   25.1950607,   16.3618641,  0.333333343
   3793,   26.4880123,   17.2015171,  0.666666687
   3794,   26.4880123,   17.2015171,  0.333333343
   3795,    27.780962,   18.0411682,  0.666666687
   3796,    27.780962,   18.0411682,  0.333333343
   3797,   29.0739136,   18.8808212,  0.666666687
   3798,   29.0739136,   18.8808212,  0.333333343
   3799,   30.3668633,   19.7204704,  0.666666687
   3800,   30.3668633,   19.7204704,  0.333333343
   3801,   31.6598148,   20.5601234,  0.666666687
   3802,   31.6598148,   20.5601234,  0.333333343
   3803,   32.9527664,   21.3997765,  0.666666687
   3804,   32.9527664,   21.3997765,  0.333333343
   3805,   34.2457123,   22.2394257,  0.666666687
   3806,   34.2457123,   22.2394257,  0.333333343
   3807,   35.5386658,   23.0790787,  0.666666687
   3808,   35.5386658,   23.0790787,  0.333333343
   3809,   36.8316154,   23.9187317,  0.666666687
   3810,   36.8316154,   23.9187317,  0.333333343
   3811,   38.1245651,   24.7583828,  0.666666687
   3812,   38.1245651,   24.7583828,  0.333333343
   3813,   39.4175148,   25.5980339,  0.666666687
   3814,   39.4175148,   25.5980339,  0.333333343
   3815,   40.7104683,   26.4376869,  0.666666687
   3816,   40.7104683,   26.4376869,  0.333333343
   3817,    42.003418,    27.277338,  0.666666687
   3818,    42.003418,    27.277338,  0.333333343
   3819,   43.2963676,    28.116991,  0.666666687
   3820,   43.2963676,    28.116991,  0.333333343
   3821,   44.5893211,   28.9566422,  0.666666687
   3822,   44.5893211,   28.9566422,  0.333333343
   3823,    45.882267,   29.7962933,  0.666666687
   3824,    45.882267,   29.7962933,  0.333333343
   3825,    9.3374052,   6.78402185,  0.666666687
   3826,    9.3374052,   6.78402185,  0.333333343
   3827,   10.5846386,   7.69019032,  0.666666687
   3828,   10.5846386,   7.69019032,  0.333333343
   3829,   11.8318739,   8.59635925,  0.666666687
   3830,   11.8318739,   8.59635925,  0.333333343
   3831,   13.0791073,   9.50252819,  0.666666687
   3832,   13.0791073,   9.50252819,  0.333333343
   3833,   14.3263435,   10.4086971,  0.666666687
   3834,   14.3263435,   10.4086971,  0.333333343
   3835,   15.5735769,   11.3148661,  0.666666687
   3836,   15.5735769,   11.3148661,  0.333333343
   3837,   16.8208103,    12.221035,  0.666666687
   3838,   16.8208103,    12.221035,  0.333333343
   3839,   18.0680466,   13.1272039,  0.666666687
   3840,   18.0680466,   13.1272039,  0.333333343
   3841,   19.3152809,   14.0333729,  0.666666687
   3842,   19.3152809,   14.0333729,  0.333333343
   3843,   20.5625153,   14.9395418,  0.666666687
   3844,   20.5625153,   14.9395418,  0.333333343
   3845,   21.8097496,   15.8457108,  0.666666687
   3846,   21.8097496,   15.8457108,  0.333333343
   3847,   23.0569839,   16.7518787,  0.666666687
   3848,   23.0569839,   16.7518787,  0.333333343
   3849,   24.3042183,   17.6580486,  0.666666687
   3850,   24.3042183,   17.6580486,  0.333333343
   3851,   25.5514545,   18.5642185,  0.666666687
   3852,   25.5514545,   18.5642185,  0.333333343
   3853,   26.7986889,   19.4703865,  0.666666687
   3854,   26.7986889,   19.4703865,  0.333333343
   3855,   28.0459232,   20.3765564,  0.666666687
   3856,   28.0459232,   20.3765564,  0.333333343
   3857,   29.2931557,   21.2827244,  0.666666687
   3858,   29.2931557,   21.2827244,  0.333333343
   3859,   30.5403919,   22.1888924,  0.666666687
   3860,   30.5403919,   22.1888924,  0.333333343
   3861,   31.7876263,   23.0950623,  0.666666687
   3862,   31.7876263,   23.0950623,  0.333333343
   3863,   33.0348587,   24.0012302,  0.666666687
   3864,   33.0348587,   24.0012302,  0.333333343
   3865,   34.2820969,   24.9074001,  0.666666687
   3866,   34.2820969,   24.9074001,  0.333333343
   3867,   35.5293312,     25.81357,  0.666666687
   3868,   35.5293312,     25.81357,  0.333333343
   3869,   36.7765617,    26.719738,  0.666666687
   3870,   36.7765617,    26.719738,  0.333333343
   3871,   38.0237999,    27.625906,  0.666666687
   3872,   38.0237999,    27.625906,  0.333333343
   3873,   39.2710342,   28.5320759,  0.666666687
   3874,   39.2710342,   28.5320759,  0.333333343
   3875,   40.5182686,   29.4382439,  0.666666687
   3876,   40.5182686,   29.4382439,  0.333333343
   3877,   41.7655029,   30.3444138,  0.666666687
   3878,   41.7655029,   30.3444138,  0.333333343
   3879,   43.0127373,   31.2505836,  0.666666687
   3880,   43.0127373,   31.2505836,  0.333333343
   3881,   44.2599716,   32.1567497,  0.666666687
   3882,   44.2599716,   32.1567497,  0.333333343
   3883,   8.96955967,   7.26340628,  0.666666687
   3884,   8.96955967,   7.26340628,  0.333333343
   3885,   10.1676598,   8.23360825,  0.666666687
   3886,   10.1676598,   8.23360825,  0.333333343
   3887,   11.3657598,   9.20381069,  0.666666687
   3888,   11.3657598,   9.20381069,  0.333333343
   3889,    12.563859,   10.1740122,  0.666666687
   3890,    12.563859,   10.1740122,  0.333333343
   3891,     13.76196,   11.1442156,  0.666666687
   3892,     13.76196,   11.1442156,  0.333333343
   3893,   14.9600601,   12.1144171,  0.666666687
   3894,   14.9600601,   12.1144171,  0.333333343
   3895,   16.1581593,   13.0846195,  0.666666687
   3896,   16.1581593,   13.0846195,  0.333333343
   3897,   17.3562603,   14.0548229,  0.666666687
   3898,   17.3562603,   14.0548229,  0.333333343
   3899,   18.5543594,   15.0250244,  0.666666687
   3900,   18.5543594,   15.0250244,  0.333333343
   3901,   19.7524586,   15.9952259,  0.666666687
   3902,   19.7524586,   15.9952259,  0.333333343
   3903,   20.9505596,   16.9654293,  0.666666687
   3904,   20.9505596,   16.9654293,  0.333333343
   3905,   22.1486607,   17.9356308,  0.666666687
   3906,   22.1486607,   17.9356308,  0.333333343
   3907,   23.3467598,   18.9058323,  0.666666687
   3908,   23.3467598,   18.9058323,  0.333333343
   3909,   24.5448608,   19.8760357,  0.666666687
   3910,   24.5448608,   19.8760357,  0.333333343
   3911,     25.74296,   20.8462372,  0.666666687
   3912,     25.74296,   20.8462372,  0.333333343
   3913,    26.941061,   21.8164406,  0.666666687
   3914,    26.941061,   21.8164406,  0.333333343
   3915,   28.1391582,   22.7866421,  0.666666687
   3916,   28.1391582,   22.7866421,  0.333333343
   3917,   29.3372593,   23.7568455,  0.666666687
   3918,   29.3372593,   23.7568455,  0.333333343
   3919,   30.5353603,    24.727047,  0.666666687
   3920,   30.5353603,    24.727047,  0.333333343
   3921,   31.7334595,   25.6972485,  0.666666687
   3922,   31.7334595,   25.6972485,  0.333333343
   3923,   32.9315605,   26.6674519,  0.666666687
   3924,   32.9315605,   26.6674519,  0.333333343
   3925,   34.1296616,   27.6376553,  0.666666687
   3926,   34.1296616,   27.6376553,  0.333333343
   3927,   35.3277588,   28.6078548,  0.666666687
   3928,   35.3277588,   28.6078548,  0.333333343
   3929,   36.5258598,   29.5780582,  0.666666687
   3930,   36.5258598,   29.5780582,  0.333333343
   3931,   37.7239609,   30.5482616,  0.666666687
   3932,   37.7239609,   30.5482616,  0.333333343
   3933,   38.9220581,   31.5184612,  0.666666687
   3934,   38.9220581,   31.5184612,  0.333333343
   3935,   40.1201591,   32.4886665,  0.666666687
   3936,   40.1201591,   32.4886665,  0.333333343
   3937,   41.3182602,   33.4588699,  0.666666687
   3938,   41.3182602,   33.4588699,  0.333333343
   3939,   42.5163574,   34.4290695,  0.666666687
   3940,   42.5163574,   34.4290695,  0.333333343
   3941,   8.57713032,   7.72288275,  0.666666687
   3942,   8.57713032,   7.72288275,  0.333333343
   3943,    9.7228117,   8.75445843,  0.666666687
   3944,    9.7228117,   8.75445843,  0.333333343
   3945,   10.8684931,   9.78603554,  0.666666687
   3946,   10.8684931,   9.78603554,  0.333333343
   3947,   12.0141745,   10.8176107,  0.666666687
   3948,   12.0141745,   10.8176107,  0.333333343
   3949,   13.1598568,   11.8491879,  0.666666687
   3950,   13.1598568,   11.8491879,  0.333333343
   3951,   14.3055382,    12.880764,  0.666666687
   3952,   14.3055382,    12.880764,  0.333333343
   3953,   15.4512186,   13.9123402,  0.666666687
   3954,   15.4512186,   13.9123402,  0.333333343
   3955,   16.5969009,   14.9439173,  0.666666687
   3956,   16.5969009,   14.9439173,  0.333333343
   3957,   17.7425823,   15.9754934,  0.666666687
   3958,   17.7425823,   15.9754934,  0.333333343
   3959,   18.8882637,   17.0070686,  0.666666687
   3960,   18.8882637,   17.0070686,  0.333333343
   3961,    20.033947,   18.0386467,  0.666666687
   3962,    20.033947,   18.0386467,  0.333333343
   3963,   21.1796284,   19.0702229,  0.666666687
   3964,   21.1796284,   19.0702229,  0.333333343
   3965,   22.3253078,    20.101799,  0.666666687
   3966,   22.3253078,    20.101799,  0.333333343
   3967,   23.4709911,   21.1333752,  0.666666687
   3968,   23.4709911,   21.1333752,  0.333333343
   3969,   24.6166725,   22.1649513,  0.666666687
   3970,   24.6166725,   22.1649513,  0.333333343
   3971,   25.7623558,   23.1965294,  0.666666687
   3972,   25.7623558,   23.1965294,  0.333333343
   3973,   26.9080353,   24.2281036,  0.666666687
   3974,   26.9080353,   24.2281036,  0.333333343
   3975,   28.0537167,   25.2596798,  0.666666687
   3976,   28.0537167,   25.2596798,  0.333333343
   3977,   29.1993999,   26.2912579,  0.666666687
   3978,   29.1993999,   26.2912579,  0.333333343
   3979,   30.3450794,   27.3228321,  0.666666687
   3980,   30.3450794,   27.3228321,  0.333333343
   3981,   31.4907627,   28.3544102,  0.666666687
   3982,   31.4907627,   28.3544102,  0.333333343
   3983,   32.6364441,   29.3859863,  0.666666687
   3984,   32.6364441,   29.3859863,  0.333333343
   3985,   33.7821236,   30.4175606,  0.666666687
   3986,   33.7821236,   30.4175606,  0.333333343
   3987,   34.9278069,   31.4491386,  0.666666687
   3988,   34.9278069,   31.4491386,  0.333333343
   3989,   36.0734901,   32.4807167,  0.666666687
   3990,   36.0734901,   32.4807167,  0.333333343
   3991,   37.2191696,    33.512291,  0.666666687
   3992,   37.2191696,    33.512291,  0.333333343
   3993,   38.3648529,    34.543869,  0.666666687
   3994,   38.3648529,    34.543869,  0.333333343
   3995,   39.5105324,   35.5754433,  0.666666687
   3996,   39.5105324,   35.5754433,  0.333333343
   3997,   40.6562157,   36.6070175,  0.666666687
   3998,   40.6562157,   36.6070175,  0.333333343
   3999,   8.16119099,   8.16119099,  0.666666687
   4000,   8.16119099,   8.16119099,  0.333333343
   4001,   9.25131321,   9.25131321,  0.666666687
   4002,   9.25131321,   9.25131321,  0.333333343
   4003,   10.3414364,   10.3414364,  0.666666687
   4004,   10.3414364,   10.3414364,  0.333333343
   4005,   11.4315596,   11.4315596,  0.666666687
   4006,   11.4315596,   11.4315596,  0.333333343
   4007,   12.5216827,   12.5216827,  0.666666687
   4008,   12.5216827,   12.5216827,  0.333333343
   4009,   13.6118059,   13.6118059,  0.666666687
   4010,   13.6118059,   13.6118059,  0.333333343
   4011,   14.7019281,   14.7019281,  0.666666687
   4012,   14.7019281,   14.7019281,  0.333333343
   4013,   15.7920523,   15.7920523,  0.666666687
   4014,   15.7920523,   15.7920523,  0.333333343
   4015,   16.8821735,   16.8821735,  0.666666687
   4016,   16.8821735,   16.8821735,  0.333333343
   4017,   17.9722977,   17.9722977,  0.666666687
   4018,   17.9722977,   17.9722977,  0.333333343
   4019,   19.0624199,   19.0624199,  0.666666687
   4020,   19.0624199,   19.0624199,  0.333333343
   4021,    20.152544,    20.152544,  0.666666687
   4022,    20.152544,    20.152544,  0.333333343
   4023,   21.2426662,   21.2426662,  0.666666687
   4024,   21.2426662,   21.2426662,  0.333333343
   4025,   22.3327904,   22.3327904,  0.666666687
   4026,   22.3327904,   22.3327904,  0.333333343
   4027,   23.4229126,   23.4229126,  0.666666687
   4028,   23.4229126,   23.4229126,  0.333333343
   4029,   24.5130367,   24.5130367,  0.666666687
   4030,   24.5130367,   24.5130367,  0.333333343
   4031,    25.603157,    25.603157,  0.666666687
   4032,    25.603157,    25.603157,  0.333333343
   4033,   26.6932812,   26.6932812,  0.666666687
   4034,   26.6932812,   26.6932812,  0.333333343
   4035,   27.7834053,   27.7834053,  0.666666687
   4036,   27.7834053,   27.7834053,  0.333333343
   4037,   28.8735256,   28.8735256,  0.666666687
   4038,   28.8735256,   28.8735256,  0.333333343
   4039,   29.9636497,   29.9636497,  0.666666687
   4040,   29.9636497,   29.9636497,  0.333333343
   4041,   31.0537739,   31.0537739,  0.666666687
   4042,   31.0537739,   31.0537739,  0.333333343
   4043,   32.1438942,   32.1438942,  0.666666687
   4044,   32.1438942,   32.1438942,  0.333333343
   4045,   33.2340202,   33.2340202,  0.666666687
   4046,   33.2340202,   33.2340202,  0.333333343
   4047,   34.3241425,   34.3241425,  0.666666687
   4048,   34.3241425,   34.3241425,  0.333333343
   4049,   35.4142647,   35.4142647,  0.666666687
   4050,   35.4142647,   35.4142647,  0.333333343
   4051,   36.5043869,   36.5043869,  0.666666687
   4052,   36.5043869,   36.5043869,  0.333333343
   4053,   37.5945129,   37.5945129,  0.666666687
   4054,   37.5945129,   37.5945129,  0.333333343
   4055,   38.6846313,   38.6846313,  0.666666687
   4056,   38.6846313,   38.6846313,  0.333333343
   4057,   7.72288275,   8.57713032,  0.666666687
   4058,   7.72288275,   8.57713032,  0.333333343
   4059,   8.75445843,    9.7228117,  0.666666687
   4060,   8.75445843,    9.7228117,  0.333333343
   4061,   9.78603554,   10.8684931,  0.666666687
   4062,   9.78603554,   10.8684931,  0.333333343
   4063,   10.8176107,   12.0141745,  0.666666687
   4064,   10.8176107,   12.0141745,  0.333333343
   4065,   11.8491879,   13.1598568,  0.666666687
   4066,   11.8491879,   13.1598568,  0.333333343
   4067,    12.880764,   14.3055382,  0.666666687
   4068,    12.880764,   14.3055382,  0.333333343
   4069,   13.9123402,   15.4512186,  0.666666687
   4070,   13.9123402,   15.4512186,  0.333333343
   4071,   14.9439173,   16.5969009,  0.666666687
   4072,   14.9439173,   16.5969009,  0.333333343
   4073,   15.9754934,   17.7425823,  0.666666687
   4074,   15.9754934,   17.7425823,  0.333333343
   4075,   17.0070686,   18.8882637,  0.666666687
   4076,   17.0070686,   18.8882637,  0.333333343
   4077,   18.0386467,    20.033947,  0.666666687
   4078,   18.0386467,    20.033947,  0.333333343
   4079,   19.0702229,   21.1796284,  0.666666687
   4080,   19.0702229,   21.1796284,  0.333333343
   4081,    20.101799,   22.3253078,  0.666666687
   4082,    20.101799,   22.3253078,  0.333333343
   4083,   21.1333752,   23.4709911,  0.666666687
   4084,   21.1333752,   23.4709911,  0.333333343
   4085,   22.1649513,   24.6166725,  0.666666687
   4086,   22.1649513,   24.6166725,  0.333333343
   4087,   23.1965294,   25.7623558,  0.666666687
   4088,   23.1965294,   25.7623558,  0.333333343
   4089,   24.2281036,   26.9080353,  0.666666687
   4090,   24.2281036,   26.9080353,  0.333333343
   4091,   25.2596798,   28.0537167,  0.666666687
   4092,   25.2596798,   28.0537167,  0.333333343
   4093,   26.2912579,   29.1993999,  0.666666687
   4094,   26.2912579,   29.1993999,  0.333333343
   4095,   27.3228321,   30.3450794,  0.666666687
   4096,   27.3228321,   30.3450794,  0.333333343
   4097,   28.3544102,   31.4907627,  0.666666687
   4098,   28.3544102,   31.4907627,  0.333333343
   4099,   29.3859863,   32.6364441,  0.666666687
   4100,   29.3859863,   32.6364441,  0.333333343
   4101,   30.4175606,   33.7821236,  0.666666687
   4102,   30.4175606,   33.7821236,  0.333333343
   4103,   31.4491386,   34.9278069,  0.666666687
   4104,   31.4491386,   34.9278069,  0.333333343
   4105,   32.4807167,   36.0734901,  0.666666687
   4106,   32.4807167,   36.0734901,  0.333333343
   4107,    33.512291,   37.2191696,  0.666666687
   4108,    33.512291,   37.2191696,  0.333333343
   4109,    34.543869,   38.3648529,  0.666666687
   4110,    34.543869,   38.3648529,  0.333333343
   4111,   35.5754433,   39.5105324,  0.666666687
   4112,   35.5754433,   39.5105324,  0.333333343
   4113,   36.6070175,   40.6562157,  0.666666687
   4114,   36.6070175,   40.6562157,  0.333333343
   4115,   7.26340628,   8.96955967,  0.666666687
   4116,   7.26340628,   8.96955967,  0.333333343
   4117,   8.23360825,   10.1676598,  0.666666687
   4118,   8.23360825,   10.1676598,  0.333333343
   4119,   9.20381069,   11.3657598,  0.666666687
   4120,   9.20381069,   11.3657598,  0.333333343
   4121,   10.1740122,    12.563859,  0.666666687
   4122,   10.1740122,    12.563859,  0.333333343
   4123,   11.1442156,     13.76196,  0.666666687
   4124,   11.1442156,     13.76196,  0.333333343
   4125,   12.1144171,   14.9600601,  0.666666687
   4126,   12.1144171,   14.9600601,  0.333333343
   4127,   13.0846195,   16.1581593,  0.666666687
   4128,   13.0846195,   16.1581593,  0.333333343
   4129,   14.0548229,   17.3562603,  0.666666687
   4130,   14.0548229,   17.3562603,  0.333333343
   4131,   15.0250244,   18.5543594,  0.666666687
   4132,   15.0250244,   18.5543594,  0.333333343
   4133,   15.9952259,   19.7524586,  0.666666687
   4134,   15.9952259,   19.7524586,  0.333333343
   4135,   16.9654293,   20.9505596,  0.666666687
   4136,   16.9654293,   20.9505596,  0.333333343
   4137,   17.9356308,   22.1486607,  0.666666687
   4138,   17.9356308,   22.1486607,  0.333333343
   4139,   18.9058323,   23.3467598,  0.666666687
   4140,   18.9058323,   23.3467598,  0.333333343
   4141,   19.8760357,   24.5448608,  0.666666687
   4142,   19.8760357,   24.5448608,  0.333333343
   4143,   20.8462372,     25.74296,  0.666666687
   4144,   20.8462372,     25.74296,  0.333333343
   4145,   21.8164406,    26.941061,  0.666666687
   4146,   21.8164406,    26.941061,  0.333333343
   4147,   22.7866421,   28.1391582,  0.666666687
   4148,   22.7866421,   28.1391582,  0.333333343
   4149,   23.7568455,   29.3372593,  0.666666687
   4150,   23.7568455,   29.3372593,  0.333333343
   4151,    24.727047,   30.5353603,  0.666666687
   4152,    24.727047,   30.5353603,  0.333333343
   4153,   25.6972485,   31.7334595,  0.666666687
   4154,   25.6972485,   31.7334595,  0.333333343
   4155,   26.6674519,   32.9315605,  0.666666687
   4156,   26.6674519,   32.9315605,  0.333333343
   4157,   27.6376553,   34.1296616,  0.666666687
   4158,   27.6376553,   34.1296616,  0.333333343
   4159,   28.6078548,   35.3277588,  0.666666687
   4160,   28.6078548,   35.3277588,  0.333333343
   4161,   29.5780582,   36.5258598,  0.666666687
   4162,   29.5780582,   36.5258598,  0.333333343
   4163,   30.5482616,   37.7239609,  0.666666687
   4164,   30.5482616,   37.7239609,  0.333333343
   4165,   31.5184612,   38.9220581,  0.666666687
   4166,   31.5184612,   38.9220581,  0.333333343
   4167,   32.4886665,   40.1201591,  0.666666687
   4168,   32.4886665,   40.1201591,  0.333333343
   4169,   33.4588699,   41.3182602,  0.666666687
   4170,   33.4588699,   41.3182602,  0.333333343
   4171,   34.4290695,   42.5163574,  0.666666687
   4172,   34.4290695,   42.5163574,  0.333333343
   4173,   6.78402185,    9.3374052,  0.666666687
   4174,   6.78402185,    9.3374052,  0.333333343
   4175,   7.69019032,   10.5846386,  0.666666687
   4176,   7.69019032,   10.5846386,  0.333333343
   4177,   8.59635925,   11.8318739,  0.666666687
   4178,   8.59635925,   11.8318739,  0.333333343
   4179,   9.50252819,   13.0791073,  0.666666687
   4180,   9.50252819,   13.0791073,  0.333333343
   4181,   10.4086971,   14.3263435,  0.666666687
   4182,   10.4086971,   14.3263435,  0.333333343
   4183,   11.3148661,   15.5735769,  0.666666687
   4184,   11.3148661,   15.5735769,  0.333333343
   4185,    12.221035,   16.8208103,  0.666666687
   4186,    12.221035,   16.8208103,  0.333333343
   4187,   13.1272039,   18.0680466,  0.666666687
   4188,   13.1272039,   18.0680466,  0.333333343
   4189,   14.0333729,   19.3152809,  0.666666687
   4190,   14.0333729,   19.3152809,  0.333333343
   4191,   14.9395418,   20.5625153,  0.666666687
   4192,   14.9395418,   20.5625153,  0.333333343
   4193,   15.8457108,   21.8097496,  0.666666687
   4194,   15.8457108,   21.8097496,  0.333333343
   4195,   16.7518787,   23.0569839,  0.666666687
   4196,   16.7518787,   23.0569839,  0.333333343
   4197,   17.6580486,   24.3042183,  0.666666687
   4198,   17.6580486,   24.3042183,  0.333333343
   4199,   18.5642185,   25.5514545,  0.666666687
   4200,   18.5642185,   25.5514545,  0.333333343
   4201,   19.4703865,   26.7986889,  0.666666687
   4202,   19.4703865,   26.7986889,  0.333333343
   4203,   20.3765564,   28.0459232,  0.666666687
   4204,   20.3765564,   28.0459232,  0.333333343
   4205,   21.2827244,   29.2931557,  0.666666687
   4206,   21.2827244,   29.2931557,  0.333333343
   4207,   22.1888924,   30.5403919,  0.666666687
   4208,   22.1888924,   30.5403919,  0.333333343
   4209,   23.0950623,   31.7876263,  0.666666687
   4210,   23.0950623,   31.7876263,  0.333333343
   4211,   24.0012302,   33.0348587,  0.666666687
   4212,   24.0012302,   33.0348587,  0.333333343
   4213,   24.9074001,   34.2820969,  0.666666687
   4214,   24.9074001,   34.2820969,  0.333333343
   4215,     25.81357,   35.5293312,  0.666666687
   4216,     25.81357,   35.5293312,  0.333333343
   4217,    26.719738,   36.7765617,  0.666666687
   4218,    26.719738,   36.7765617,  0.333333343
   4219,    27.625906,   38.0237999,  0.666666687
   4220,    27.625906,   38.0237999,  0.333333343
   4221,   28.5320759,   39.2710342,  0.666666687
   4222,   28.5320759,   39.2710342,  0.333333343
   4223,   29.4382439,   40.5182686,  0.666666687
   4224,   29.4382439,   40.5182686,  0.333333343
   4225,   30.3444138,   41.7655029,  0.666666687
   4226,   30.3444138,   41.7655029,  0.333333343
   4227,   31.2505836,   43.0127373,  0.666666687
   4228,   31.2505836,   43.0127373,  0.333333343
   4229,   32.1567497,   44.2599716,  0.666666687
   4230,   32.1567497,   44.2599716,  0.333333343
   4231,   6.28604221,   9.67965603,  0.666666687
   4232,   6.28604221,   9.67965603,  0.333333343
   4233,    7.1256938,   10.9726067,  0.666666687
   4234,    7.1256938,   10.9726067,  0.333333343
   4235,   7.96534586,   12.2655573,  0.666666687
   4236,   7.96534586,   12.2655573,  0.333333343
   4237,   8.80499744,    13.558507,  0.666666687
   4238,   8.80499744,    13.558507,  0.333333343
   4239,   9.64464951,   14.8514585,  0.666666687
   4240,   9.64464951,   14.8514585,  0.333333343
   4241,   10.4843016,   16.1444092,  0.666666687
   4242,   10.4843016,   16.1444092,  0.333333343
   4243,   11.3239527,   17.4373589,  0.666666687
   4244,   11.3239527,   17.4373589,  0.333333343
   4245,   12.1636057,   18.7303104,  0.666666687
   4246,   12.1636057,   18.7303104,  0.333333343
   4247,   13.0032568,   20.0232601,  0.666666687
   4248,   13.0032568,   20.0232601,  0.333333343
   4249,   13.8429089,   21.3162098,  0.666666687
   4250,   13.8429089,   21.3162098,  0.333333343
   4251,   14.6825609,   22.6091614,  0.666666687
   4252,   14.6825609,   22.6091614,  0.333333343
   4253,    15.522212,   23.9021111,  0.666666687
   4254,    15.522212,   23.9021111,  0.333333343
   4255,   16.3618641,   25.1950607,  0.666666687
   4256,   16.3618641,   25.1950607,  0.333333343
   4257,   17.2015171,   26.4880123,  0.666666687
   4258,   17.2015171,   26.4880123,  0.333333343
   4259,   18.0411682,    27.780962,  0.666666687
   4260,   18.0411682,    27.780962,  0.333333343
   4261,   18.8808212,   29.0739136,  0.666666687
   4262,   18.8808212,   29.0739136,  0.333333343
   4263,   19.7204704,   30.3668633,  0.666666687
   4264,   19.7204704,   30.3668633,  0.333333343
   4265,   20.5601234,   31.6598148,  0.666666687
   4266,   20.5601234,   31.6598148,  0.333333343
   4267,   21.3997765,   32.9527664,  0.666666687
   4268,   21.3997765,   32.9527664,  0.333333343
   4269,   22.2394257,   34.2457123,  0.666666687
   4270,   22.2394257,   34.2457123,  0.333333343
   4271,   23.0790787,   35.5386658,  0.666666687
   4272,   23.0790787,   35.5386658,  0.333333343
   4273,   23.9187317,   36.8316154,  0.666666687
   4274,   23.9187317,   36.8316154,  0.333333343
   4275,   24.7583828,   38.1245651,  0.666666687
   4276,   24.7583828,   38.1245651,  0.333333343
   4277,   25.5980339,   39.4175148,  0.666666687
   4278,   25.5980339,   39.4175148,  0.333333343
   4279,   26.4376869,   40.7104683,  0.666666687
   4280,   26.4376869,   40.7104683,  0.333333343
   4281,    27.277338,    42.003418,  0.666666687
   4282,    27.277338,    42.003418,  0.333333343
   4283,    28.116991,   43.2963676,  0.666666687
   4284,    28.116991,   43.2963676,  0.333333343
   4285,   28.9566422,   44.5893211,  0.666666687
   4286,   28.9566422,   44.5893211,  0.333333343
   4287,   29.7962933,    45.882267,  0.666666687
   4288,   29.7962933,    45.882267,  0.333333343
   4289,   5.77083349,   9.99537659,  0.666666687
   4290,   5.77083349,   9.99537659,  0.333333343
   4291,   6.54166651,   11.3304987,  0.666666687
   4292,   6.54166651,   11.3304987,  0.333333343
   4293,       7.3125,   12.6656218,  0.666666687
   4294,       7.3125,   12.6656218,  0.333333343
   4295,   8.08333302,   14.0007439,  0.666666687
   4296,   8.08333302,   14.0007439,  0.333333343
   4297,   8.85416698,   15.3358669,  0.666666687
   4298,   8.85416698,   15.3358669,  0.333333343
   4299,        9.625,   16.6709881,  0.666666687
   4300,        9.625,   16.6709881,  0.333333343
   4301,    10.395833,   18.0061111,  0.666666687
   4302,    10.395833,   18.0061111,  0.333333343
   4303,    11.166667,   19.3412342,  0.666666687
   4304,    11.166667,   19.3412342,  0.333333343
   4305,      11.9375,   20.6763573,  0.666666687
   4306,      11.9375,   20.6763573,  0.333333343
   4307,    12.708333,   22.0114784,  0.666666687
   4308,    12.708333,   22.0114784,  0.333333343
   4309,    13.479167,   23.3466015,  0.666666687
   4310,    13.479167,   23.3466015,  0.333333343
   4311,        14.25,   24.6817245,  0.666666687
   4312,        14.25,   24.6817245,  0.333333343
   4313,    15.020833,   26.0168457,  0.666666687
   4314,    15.020833,   26.0168457,  0.333333343
   4315,    15.791667,   27.3519688,  0.666666687
   4316,    15.791667,   27.3519688,  0.333333343
   4317,      16.5625,   28.6870918,  0.666666687
   4318,      16.5625,   28.6870918,  0.333333343
   4319,    17.333334,   30.0222149,  0.666666687
   4320,    17.333334,   30.0222149,  0.333333343
   4321,    18.104166,    31.357336,  0.666666687
   4322,    18.104166,    31.357336,  0.333333343
   4323,       18.875,   32.6924591,  0.666666687
   4324,       18.875,   32.6924591,  0.333333343
   4325,    19.645834,   34.0275841,  0.666666687
   4326,    19.645834,   34.0275841,  0.333333343
   4327,    20.416666,   35.3627014,  0.666666687
   4328,    20.416666,   35.3627014,  0.333333343
   4329,      21.1875,   36.6978264,  0.666666687
   4330,      21.1875,   36.6978264,  0.333333343
   4331,    21.958334,   38.0329514,  0.666666687
   4332,    21.958334,   38.0329514,  0.333333343
   4333,    22.729166,   39.3680687,  0.666666687
   4334,    22.729166,   39.3680687,  0.333333343
   4335,         23.5,   40.7031937,  0.666666687
   4336,         23.5,   40.7031937,  0.333333343
   4337,    24.270834,   42.0383186,  0.666666687
   4338,    24.270834,   42.0383186,  0.333333343
   4339,    25.041666,    43.373436,  0.666666687
   4340,    25.041666,    43.373436,  0.333333343
   4341,      25.8125,   44.7085609,  0.666666687
   4342,      25.8125,   44.7085609,  0.333333343
   4343,    26.583334,   46.0436859,  0.666666687
   4344,    26.583334,   46.0436859,  0.333333343
   4345,    27.354166,   47.3788071,  0.666666687
   4346,    27.354166,   47.3788071,  0.333333343
   4347,   5.23980713,   10.2837009,  0.666666687
   4348,   5.23980713,   10.2837009,  0.333333343
   4349,   5.93970871,   11.6573353,  0.666666687
   4350,   5.93970871,   11.6573353,  0.333333343
   4351,   6.63961124,   13.0309706,  0.666666687
   4352,   6.63961124,   13.0309706,  0.333333343
   4353,   7.33951283,   14.4046049,  0.666666687
   4354,   7.33951283,   14.4046049,  0.333333343
   4355,   8.03941536,   15.7782412,  0.666666687
   4356,   8.03941536,   15.7782412,  0.333333343
   4357,   8.73931694,   17.1518764,  0.666666687
   4358,   8.73931694,   17.1518764,  0.333333343
   4359,   9.43921852,   18.5255108,  0.666666687
   4360,   9.43921852,   18.5255108,  0.333333343
   4361,   10.1391211,    19.899147,  0.666666687
   4362,   10.1391211,    19.899147,  0.333333343
   4363,   10.8390236,   21.2727814,  0.666666687
   4364,   10.8390236,   21.2727814,  0.333333343
   4365,   11.5389252,   22.6464157,  0.666666687
   4366,   11.5389252,   22.6464157,  0.333333343
   4367,   12.2388277,    24.020052,  0.666666687
   4368,   12.2388277,    24.020052,  0.333333343
   4369,   12.9387293,   25.3936863,  0.666666687
   4370,   12.9387293,   25.3936863,  0.333333343
   4371,   13.6386309,   26.7673206,  0.666666687
   4372,   13.6386309,   26.7673206,  0.333333343
   4373,   14.3385334,   28.1409569,  0.666666687
   4374,   14.3385334,   28.1409569,  0.333333343
   4375,    15.038435,   29.5145912,  0.666666687
   4376,    15.038435,   29.5145912,  0.333333343
   4377,   15.7383375,   30.8882275,  0.666666687
   4378,   15.7383375,   30.8882275,  0.333333343
   4379,   16.4382381,   32.2618599,  0.666666687
   4380,   16.4382381,   32.2618599,  0.333333343
   4381,   17.1381416,    33.635498,  0.666666687
   4382,   17.1381416,    33.635498,  0.333333343
   4383,   17.8380432,   35.0091324,  0.666666687
   4384,   17.8380432,   35.0091324,  0.333333343
   4385,   18.5379448,   36.3827667,  0.666666687
   4386,   18.5379448,   36.3827667,  0.333333343
   4387,   19.2378483,   37.7564011,  0.666666687
   4388,   19.2378483,   37.7564011,  0.333333343
   4389,   19.9377499,   39.1300392,  0.666666687
   4390,   19.9377499,   39.1300392,  0.333333343
   4391,   20.6376514,   40.5036697,  0.666666687
   4392,   20.6376514,   40.5036697,  0.333333343
   4393,    21.337553,   41.8773079,  0.666666687
   4394,    21.337553,   41.8773079,  0.333333343
   4395,   22.0374565,   43.2509422,  0.666666687
   4396,   22.0374565,   43.2509422,  0.333333343
   4397,   22.7373562,   44.6245766,  0.666666687
   4398,   22.7373562,   44.6245766,  0.333333343
   4399,   23.4372597,   45.9982109,  0.666666687
   4400,   23.4372597,   45.9982109,  0.333333343
   4401,   24.1371613,   47.3718491,  0.666666687
   4402,   24.1371613,   47.3718491,  0.333333343
   4403,   24.8370628,   48.7454796,  0.666666687
   4404,   24.8370628,   48.7454796,  0.333333343
   4405,   4.69441891,   10.5438375,  0.666666687
   4406,   4.69441891,   10.5438375,  0.333333343
   4407,   5.32147074,    11.952219,  0.666666687
   4408,   5.32147074,    11.952219,  0.333333343
   4409,   5.94852352,   13.3606024,  0.666666687
   4410,   5.94852352,   13.3606024,  0.333333343
   4411,   6.57557535,   14.7689838,  0.666666687
   4412,   6.57557535,   14.7689838,  0.333333343
   4413,   7.20262814,   16.1773682,  0.666666687
   4414,   7.20262814,   16.1773682,  0.333333343
   4415,   7.82968044,   17.5857506,  0.666666687
   4416,   7.82968044,   17.5857506,  0.333333343
   4417,   8.45673275,    18.994133,  0.666666687
   4418,   8.45673275,    18.994133,  0.333333343
   4419,   9.08378506,   20.4025154,  0.666666687
   4420,   9.08378506,   20.4025154,  0.333333343
   4421,   9.71083736,   21.8108978,  0.666666687
   4422,   9.71083736,   21.8108978,  0.333333343
   4423,   10.3378897,   23.2192802,  0.666666687
   4424,   10.3378897,   23.2192802,  0.333333343
   4425,    10.964942,   24.6276627,  0.666666687
   4426,    10.964942,   24.6276627,  0.333333343
   4427,   11.5919943,   26.0360451,  0.666666687
   4428,   11.5919943,   26.0360451,  0.333333343
   4429,   12.2190466,   27.4444275,  0.666666687
   4430,   12.2190466,   27.4444275,  0.333333343
   4431,   12.8460989,   28.8528118,  0.666666687
   4432,   12.8460989,   28.8528118,  0.333333343
   4433,   13.4731512,   30.2611942,  0.666666687
   4434,   13.4731512,   30.2611942,  0.333333343
   4435,   14.1002045,   31.6695766,  0.666666687
   4436,   14.1002045,   31.6695766,  0.333333343
   4437,   14.7272558,   33.0779572,  0.666666687
   4438,   14.7272558,   33.0779572,  0.333333343
   4439,   15.3543081,   34.4863396,  0.666666687
   4440,   15.3543081,   34.4863396,  0.333333343
   4441,   15.9813614,   35.8947258,  0.666666687
   4442,   15.9813614,   35.8947258,  0.333333343
   4443,   16.6084118,   37.3031044,  0.666666687
   4444,   16.6084118,   37.3031044,  0.333333343
   4445,    17.235466,   38.7114906,  0.666666687
   4446,    17.235466,   38.7114906,  0.333333343
   4447,   17.8625183,    40.119873,  0.666666687
   4448,   17.8625183,    40.119873,  0.333333343
   4449,   18.4895687,   41.5282516,  0.666666687
   4450,   18.4895687,   41.5282516,  0.333333343
   4451,   19.1166229,   42.9366379,  0.666666687
   4452,   19.1166229,   42.9366379,  0.333333343
   4453,   19.7436752,   44.3450203,  0.666666687
   4454,   19.7436752,   44.3450203,  0.333333343
   4455,   20.3707256,   45.7533989,  0.666666687
   4456,   20.3707256,   45.7533989,  0.333333343
   4457,   20.9977798,   47.1617851,  0.666666687
   4458,   20.9977798,   47.1617851,  0.333333343
   4459,   21.6248322,   48.5701675,  0.666666687
   4460,   21.6248322,   48.5701675,  0.333333343
   4461,   22.2518826,     49.97855,  0.666666687
   4462,   22.2518826,     49.97855,  0.333333343
   4463,   4.13616371,    10.775074,  0.666666687
   4464,   4.13616371,    10.775074,  0.333333343
   4465,   4.68864727,    12.214344,  0.666666687
   4466,   4.68864727,    12.214344,  0.333333343
   4467,   5.24113131,    13.653614,  0.666666687
   4468,   5.24113131,    13.653614,  0.333333343
   4469,   5.79361486,   15.0928831,  0.666666687
   4470,   5.79361486,   15.0928831,  0.333333343
   4471,   6.34609938,   16.5321541,  0.666666687
   4472,   6.34609938,   16.5321541,  0.333333343
   4473,   6.89858294,   17.9714241,  0.666666687
   4474,   6.89858294,   17.9714241,  0.333333343
   4475,   7.45106649,   19.4106922,  0.666666687
   4476,   7.45106649,   19.4106922,  0.333333343
   4477,   8.00355148,   20.8499641,  0.666666687
   4478,   8.00355148,   20.8499641,  0.333333343
   4479,   8.55603504,   22.2892323,  0.666666687
   4480,   8.55603504,   22.2892323,  0.333333343
   4481,    9.1085186,   23.7285023,  0.666666687
   4482,    9.1085186,   23.7285023,  0.333333343
   4483,   9.66100311,   25.1677723,  0.666666687
   4484,   9.66100311,   25.1677723,  0.333333343
   4485,   10.2134867,   26.6070423,  0.666666687
   4486,   10.2134867,   26.6070423,  0.333333343
   4487,   10.7659702,   28.0463123,  0.666666687
   4488,   10.7659702,   28.0463123,  0.333333343
   4489,   11.3184547,   29.4855824,  0.666666687
   4490,   11.3184547,   29.4855824,  0.333333343
   4491,   11.8709383,   30.9248524,  0.666666687
   4492,   11.8709383,   30.9248524,  0.333333343
   4493,   12.4234228,   32.3641243,  0.666666687
   4494,   12.4234228,   32.3641243,  0.333333343
   4495,   12.9759054,   33.8033905,  0.666666687
   4496,   12.9759054,   33.8033905,  0.333333343
   4497,   13.5283899,   35.2426605,  0.666666687
   4498,   13.5283899,   35.2426605,  0.333333343
   4499,   14.0808744,   36.6819305,  0.666666687
   4500,   14.0808744,   36.6819305,  0.333333343
   4501,    14.633357,   38.1212006,  0.666666687
   4502,    14.633357,   38.1212006,  0.333333343
   4503,   15.1858416,   39.5604706,  0.666666687
   4504,   15.1858416,   39.5604706,  0.333333343
   4505,   15.7383261,   40.9997406,  0.666666687
   4506,   15.7383261,   40.9997406,  0.333333343
   4507,   16.2908096,   42.4390106,  0.666666687
   4508,   16.2908096,   42.4390106,  0.333333343
   4509,   16.8432941,   43.8782806,  0.666666687
   4510,   16.8432941,   43.8782806,  0.333333343
   4511,   17.3957787,   45.3175507,  0.666666687
   4512,   17.3957787,   45.3175507,  0.333333343
   4513,   17.9482613,   46.7568169,  0.666666687
   4514,   17.9482613,   46.7568169,  0.333333343
   4515,   18.5007458,   48.1960907,  0.666666687
   4516,   18.5007458,   48.1960907,  0.333333343
   4517,   19.0532303,   49.6353607,  0.666666687
   4518,   19.0532303,   49.6353607,  0.333333343
   4519,   19.6057129,   51.0746269,  0.666666687
   4520,   19.6057129,   51.0746269,  0.333333343
   4521,   3.56657124,    10.976778,  0.666666687
   4522,   3.56657124,    10.976778,  0.333333343
   4523,   4.04297209,   12.4429893,  0.666666687
   4524,   4.04297209,   12.4429893,  0.333333343
   4525,   4.51937342,   13.9092016,  0.666666687
   4526,   4.51937342,   13.9092016,  0.333333343
   4527,   4.99577475,   15.3754129,  0.666666687
   4528,   4.99577475,   15.3754129,  0.333333343
   4529,   5.47217607,   16.8416271,  0.666666687
   4530,   5.47217607,   16.8416271,  0.333333343
   4531,   5.94857693,   18.3078384,  0.666666687
   4532,   5.94857693,   18.3078384,  0.333333343
   4533,   6.42497826,   19.7740498,  0.666666687
   4534,   6.42497826,   19.7740498,  0.333333343
   4535,   6.90137959,    21.240263,  0.666666687
   4536,   6.90137959,    21.240263,  0.333333343
   4537,   7.37778091,   22.7064743,  0.666666687
   4538,   7.37778091,   22.7064743,  0.333333343
   4539,   7.85418177,   24.1726856,  0.666666687
   4540,   7.85418177,   24.1726856,  0.333333343
   4541,   8.33058357,   25.6388988,  0.666666687
   4542,   8.33058357,   25.6388988,  0.333333343
   4543,   8.80698395,   27.1051102,  0.666666687
   4544,   8.80698395,   27.1051102,  0.333333343
   4545,   9.28338528,   28.5713215,  0.666666687
   4546,   9.28338528,   28.5713215,  0.333333343
   4547,   9.75978661,   30.0375347,  0.666666687
   4548,   9.75978661,   30.0375347,  0.333333343
   4549,   10.2361879,   31.5037479,  0.666666687
   4550,   10.2361879,   31.5037479,  0.333333343
   4551,   10.7125893,   32.9699593,  0.666666687
   4552,   10.7125893,   32.9699593,  0.333333343
   4553,   11.1889896,   34.4361687,  0.666666687
   4554,   11.1889896,   34.4361687,  0.333333343
   4555,   11.6653919,   35.9023819,  0.666666687
   4556,   11.6653919,   35.9023819,  0.333333343
   4557,   12.1417933,   37.3685951,  0.666666687
   4558,   12.1417933,   37.3685951,  0.333333343
   4559,   12.6181936,   38.8348083,  0.666666687
   4560,   12.6181936,   38.8348083,  0.333333343
   4561,    13.094595,   40.3010216,  0.666666687
   4562,    13.094595,   40.3010216,  0.333333343
   4563,   13.5709963,   41.7672348,  0.666666687
   4564,   13.5709963,   41.7672348,  0.333333343
   4565,   14.0473976,   43.2334442,  0.666666687
   4566,   14.0473976,   43.2334442,  0.333333343
   4567,   14.5237989,   44.6996574,  0.666666687
   4568,   14.5237989,   44.6996574,  0.333333343
   4569,   15.0002003,   46.1658707,  0.666666687
   4570,   15.0002003,   46.1658707,  0.333333343
   4571,   15.4766006,   47.6320801,  0.666666687
   4572,   15.4766006,   47.6320801,  0.333333343
   4573,    15.953002,   49.0982933,  0.666666687
   4574,    15.953002,   49.0982933,  0.333333343
   4575,   16.4294033,   50.5645065,  0.666666687
   4576,   16.4294033,   50.5645065,  0.333333343
   4577,   16.9058037,   52.0307159,  0.666666687
   4578,   16.9058037,   52.0307159,  0.333333343
   4579,   2.98720312,   11.1483946,  0.666666687
   4580,   2.98720312,   11.1483946,  0.333333343
   4581,   3.38621569,   12.6375294,  0.666666687
   4582,   3.38621569,   12.6375294,  0.333333343
   4583,   3.78522849,   14.1266651,  0.666666687
   4584,   3.78522849,   14.1266651,  0.333333343
   4585,   4.18424129,   15.6157999,  0.666666687
   4586,   4.18424129,   15.6157999,  0.333333343
   4587,   4.58325386,   17.1049366,  0.666666687
   4588,   4.58325386,   17.1049366,  0.333333343
   4589,   4.98226643,   18.5940723,  0.666666687
   4590,   4.98226643,   18.5940723,  0.333333343
   4591,   5.38127899,   20.0832081,  0.666666687
   4592,   5.38127899,   20.0832081,  0.333333343
   4593,   5.78029203,   21.5723438,  0.666666687
   4594,   5.78029203,   21.5723438,  0.333333343
   4595,    6.1793046,   23.0614796,  0.666666687
   4596,    6.1793046,   23.0614796,  0.333333343
   4597,   6.57831717,   24.5506134,  0.666666687
   4598,   6.57831717,   24.5506134,  0.333333343
   4599,   6.97733021,   26.0397511,  0.666666687
   4600,   6.97733021,   26.0397511,  0.333333343
   4601,   7.37634277,   27.5288868,  0.666666687
   4602,   7.37634277,   27.5288868,  0.333333343
   4603,   7.77535534,   29.0180206,  0.666666687
   4604,   7.77535534,   29.0180206,  0.333333343
   4605,    8.1743679,   30.5071583,  0.666666687
   4606,    8.1743679,   30.5071583,  0.333333343
   4607,   8.57338047,   31.9962921,  0.666666687
   4608,   8.57338047,   31.9962921,  0.333333343
   4609,   8.97239399,   33.4854317,  0.666666687
   4610,   8.97239399,   33.4854317,  0.333333343
   4611,    9.3714056,   34.9745636,  0.666666687
   4612,    9.3714056,   34.9745636,  0.333333343
   4613,   9.77041912,   36.4636993,  0.666666687
   4614,   9.77041912,   36.4636993,  0.333333343
   4615,   10.1694317,   37.9528351,  0.666666687
   4616,   10.1694317,   37.9528351,  0.333333343
   4617,   10.5684443,   39.4419708,  0.666666687
   4618,   10.5684443,   39.4419708,  0.333333343
   4619,   10.9674568,   40.9311066,  0.666666687
   4620,   10.9674568,   40.9311066,  0.333333343
   4621,   11.3664703,   42.4202423,  0.666666687
   4622,   11.3664703,   42.4202423,  0.333333343
   4623,   11.7654819,   43.9093781,  0.666666687
   4624,   11.7654819,   43.9093781,  0.333333343
   4625,   12.1644955,   45.3985138,  0.666666687
   4626,   12.1644955,   45.3985138,  0.333333343
   4627,    12.563508,   46.8876495,  0.666666687
   4628,    12.563508,   46.8876495,  0.333333343
   4629,   12.9625206,   48.3767853,  0.666666687
   4630,   12.9625206,   48.3767853,  0.333333343
   4631,   13.3615332,    49.865921,  0.666666687
   4632,   13.3615332,    49.865921,  0.333333343
   4633,   13.7605467,   51.3550568,  0.666666687
   4634,   13.7605467,   51.3550568,  0.333333343
   4635,   14.1595583,   52.8441925,  0.666666687
   4636,   14.1595583,   52.8441925,  0.333333343
   4637,   2.39964747,   11.2894535,  0.666666687
   4638,   2.39964747,   11.2894535,  0.333333343
   4639,   2.72017789,    12.797431,  0.666666687
   4640,   2.72017789,    12.797431,  0.333333343
   4641,   3.04070854,   14.3054085,  0.666666687
   4642,   3.04070854,   14.3054085,  0.333333343
   4643,   3.36123896,    15.813386,  0.666666687
   4644,   3.36123896,    15.813386,  0.333333343
   4645,   3.68176961,   17.3213634,  0.666666687
   4646,   3.68176961,   17.3213634,  0.333333343
   4647,   4.00230026,   18.8293419,  0.666666687
   4648,   4.00230026,   18.8293419,  0.333333343
   4649,   4.32283068,   20.3373184,  0.666666687
   4650,   4.32283068,   20.3373184,  0.333333343
   4651,   4.64336109,   21.8452969,  0.666666687
   4652,   4.64336109,   21.8452969,  0.333333343
   4653,   4.96389151,   23.3532734,  0.666666687
   4654,   4.96389151,   23.3532734,  0.333333343
   4655,   5.28442192,   24.8612518,  0.666666687
   4656,   5.28442192,   24.8612518,  0.333333343
   4657,   5.60495281,   26.3692303,  0.666666687
   4658,   5.60495281,   26.3692303,  0.333333343
   4659,   5.92548323,   27.8772068,  0.666666687
   4660,   5.92548323,   27.8772068,  0.333333343
   4661,   6.24601364,   29.3851833,  0.666666687
   4662,   6.24601364,   29.3851833,  0.333333343
   4663,   6.56654453,   30.8931618,  0.666666687
   4664,   6.56654453,   30.8931618,  0.333333343
   4665,   6.88707495,   32.4011383,  0.666666687
   4666,   6.88707495,   32.4011383,  0.333333343
   4667,   7.20760536,   33.9091187,  0.666666687
   4668,   7.20760536,   33.9091187,  0.333333343
   4669,   7.52813578,   35.4170914,  0.666666687
   4670,   7.52813578,   35.4170914,  0.333333343
   4671,   7.84866619,   36.9250717,  0.666666687
   4672,   7.84866619,   36.9250717,  0.333333343
   4673,   8.16919708,   38.4330521,  0.666666687
   4674,   8.16919708,   38.4330521,  0.333333343
   4675,   8.48972702,   39.9410248,  0.666666687
   4676,   8.48972702,   39.9410248,  0.333333343
   4677,   8.81025791,   41.4490051,  0.666666687
   4678,   8.81025791,   41.4490051,  0.333333343
   4679,    9.1307888,   42.9569817,  0.666666687
   4680,    9.1307888,   42.9569817,  0.333333343
   4681,   9.45131874,   44.4649582,  0.666666687
   4682,   9.45131874,   44.4649582,  0.333333343
   4683,   9.77184963,   45.9729385,  0.666666687
   4684,   9.77184963,   45.9729385,  0.333333343
   4685,   10.0923805,   47.4809151,  0.666666687
   4686,   10.0923805,   47.4809151,  0.333333343
   4687,   10.4129105,   48.9888916,  0.666666687
   4688,   10.4129105,   48.9888916,  0.333333343
   4689,   10.7334414,   50.4968681,  0.666666687
   4690,   10.7334414,   50.4968681,  0.333333343
   4691,   11.0539722,   52.0048485,  0.666666687
   4692,   11.0539722,   52.0048485,  0.333333343
   4693,   11.3745022,    53.512825,  0.666666687
   4694,   11.3745022,    53.512825,  0.333333343
   4695,   1.80551445,   11.3995695,  0.666666687
   4696,   1.80551445,   11.3995695,  0.333333343
   4697,   2.04668427,   12.9222555,  0.666666687
   4698,   2.04668427,   12.9222555,  0.333333343
   4699,   2.28785396,   14.4449415,  0.666666687
   4700,   2.28785396,   14.4449415,  0.333333343
   4701,   2.52902365,   15.9676275,  0.666666687
   4702,   2.52902365,   15.9676275,  0.333333343
   4703,   2.77019382,   17.4903145,  0.666666687
   4704,   2.77019382,   17.4903145,  0.333333343
   4705,   3.01136351,   19.0130005,  0.666666687
   4706,   3.01136351,   19.0130005,  0.333333343
   4707,    3.2525332,   20.5356865,  0.666666687
   4708,    3.2525332,   20.5356865,  0.333333343
   4709,   3.49370313,   22.0583744,  0.666666687
   4710,   3.49370313,   22.0583744,  0.333333343
   4711,   3.73487282,   23.5810585,  0.666666687
   4712,   3.73487282,   23.5810585,  0.333333343
   4713,   3.97604251,   25.1037445,  0.666666687
   4714,   3.97604251,   25.1037445,  0.333333343
   4715,   4.21721268,   26.6264324,  0.666666687
   4716,   4.21721268,   26.6264324,  0.333333343
   4717,   4.45838213,   28.1491184,  0.666666687
   4718,   4.45838213,   28.1491184,  0.333333343
   4719,   4.69955206,   29.6718025,  0.666666687
   4720,   4.69955206,   29.6718025,  0.333333343
   4721,   4.94072199,   31.1944904,  0.666666687
   4722,   4.94072199,   31.1944904,  0.333333343
   4723,   5.18189144,   32.7171745,  0.666666687
   4724,   5.18189144,   32.7171745,  0.333333343
   4725,   5.42306185,   34.2398643,  0.666666687
   4726,   5.42306185,   34.2398643,  0.333333343
   4727,   5.66423082,   35.7625465,  0.666666687
   4728,   5.66423082,   35.7625465,  0.333333343
   4729,   5.90540123,   37.2852364,  0.666666687
   4730,   5.90540123,   37.2852364,  0.333333343
   4731,   6.14657116,   38.8079224,  0.666666687
   4732,   6.14657116,   38.8079224,  0.333333343
   4733,   6.38774061,   40.3306046,  0.666666687
   4734,   6.38774061,   40.3306046,  0.333333343
   4735,   6.62891054,   41.8532944,  0.666666687
   4736,   6.62891054,   41.8532944,  0.333333343
   4737,   6.87008047,   43.3759804,  0.666666687
   4738,   6.87008047,   43.3759804,  0.333333343
   4739,   7.11124992,   44.8986664,  0.666666687
   4740,   7.11124992,   44.8986664,  0.333333343
   4741,   7.35241985,   46.4213524,  0.666666687
   4742,   7.35241985,   46.4213524,  0.333333343
   4743,   7.59358978,   47.9440384,  0.666666687
   4744,   7.59358978,   47.9440384,  0.333333343
   4745,   7.83475924,   49.4667244,  0.666666687
   4746,   7.83475924,   49.4667244,  0.333333343
   4747,   8.07592964,   50.9894104,  0.666666687
   4748,   8.07592964,   50.9894104,  0.333333343
   4749,   8.31709957,   52.5120964,  0.666666687
   4750,   8.31709957,   52.5120964,  0.333333343
   4751,   8.55826855,   54.0347824,  0.666666687
   4752,   8.55826855,   54.0347824,  0.333333343
   4753,    1.2064327,   11.4784403,  0.666666687
   4754,    1.2064327,   11.4784403,  0.333333343
   4755,   1.36758065,   13.0116615,  0.666666687
   4756,   1.36758065,   13.0116615,  0.333333343
   4757,   1.52872872,   14.5448828,  0.666666687
   4758,   1.52872872,   14.5448828,  0.333333343
   4759,   1.68987679,    16.078104,  0.666666687
   4760,   1.68987679,    16.078104,  0.333333343
   4761,   1.85102499,   17.6113262,  0.666666687
   4762,   1.85102499,   17.6113262,  0.333333343
   4763,   2.01217294,   19.1445465,  0.666666687
   4764,   2.01217294,   19.1445465,  0.333333343
   4765,   2.17332101,   20.6777668,  0.666666687
   4766,   2.17332101,   20.6777668,  0.333333343
   4767,   2.33446908,    22.210989,  0.666666687
   4768,   2.33446908,    22.210989,  0.333333343
   4769,   2.49561715,   23.7442112,  0.666666687
   4770,   2.49561715,   23.7442112,  0.333333343
   4771,   2.65676498,   25.2774315,  0.666666687
   4772,   2.65676498,   25.2774315,  0.333333343
   4773,   2.81791329,   26.8106537,  0.666666687
   4774,   2.81791329,   26.8106537,  0.333333343
   4775,   2.97906113,    28.343874,  0.666666687
   4776,   2.97906113,    28.343874,  0.333333343
   4777,    3.1402092,   29.8770943,  0.666666687
   4778,    3.1402092,   29.8770943,  0.333333343
   4779,   3.30135727,   31.4103165,  0.666666687
   4780,   3.30135727,   31.4103165,  0.333333343
   4781,   3.46250534,   32.9435387,  0.666666687
   4782,   3.46250534,   32.9435387,  0.333333343
   4783,   3.62365341,   34.4767609,  0.666666687
   4784,   3.62365341,   34.4767609,  0.333333343
   4785,   3.78480124,   36.0099792,  0.666666687
   4786,   3.78480124,   36.0099792,  0.333333343
   4787,   3.94594955,   37.5432014,  0.666666687
   4788,   3.94594955,   37.5432014,  0.333333343
   4789,   4.10709763,   39.0764236,  0.666666687
   4790,   4.10709763,   39.0764236,  0.333333343
   4791,   4.26824522,    40.609642,  0.666666687
   4792,   4.26824522,    40.609642,  0.333333343
   4793,   4.42939377,   42.1428642,  0.666666687
   4794,   4.42939377,   42.1428642,  0.333333343
   4795,   4.59054184,   43.6760864,  0.666666687
   4796,   4.59054184,   43.6760864,  0.333333343
   4797,   4.75168943,   45.2093048,  0.666666687
   4798,   4.75168943,   45.2093048,  0.333333343
   4799,   4.91283798,   46.7425308,  0.666666687
   4800,   4.91283798,   46.7425308,  0.333333343
   4801,   5.07398605,    48.275753,  0.666666687
   4802,   5.07398605,    48.275753,  0.333333343
   4803,   5.23513365,   49.8089714,  0.666666687
   4804,   5.23513365,   49.8089714,  0.333333343
   4805,   5.39628172,   51.3421936,  0.666666687
   4806,   5.39628172,   51.3421936,  0.333333343
   4807,   5.55743027,   52.8754158,  0.666666687
   4808,   5.55743027,   52.8754158,  0.333333343
   4809,   5.71857786,   54.4086342,  0.666666687
   4810,   5.71857786,   54.4086342,  0.333333343
   4811,  0.604044199,   11.5258493,  0.666666687
   4812,  0.604044199,   11.5258493,  0.333333343
   4813,  0.684728742,    13.065403,  0.666666687
   4814,  0.684728742,    13.065403,  0.333333343
   4815,  0.765413344,   14.6049566,  0.666666687
   4816,  0.765413344,   14.6049566,  0.333333343
   4817,  0.846097946,   16.1445103,  0.666666687
   4818,  0.846097946,   16.1445103,  0.333333343
   4819,  0.926782608,   17.6840649,  0.666666687
   4820,  0.926782608,   17.6840649,  0.333333343
   4821,   1.00746715,   19.2236195,  0.666666687
   4822,   1.00746715,   19.2236195,  0.333333343
   4823,   1.08815169,   20.7631721,  0.666666687
   4824,   1.08815169,   20.7631721,  0.333333343
   4825,   1.16883636,   22.3027267,  0.666666687
   4826,   1.16883636,   22.3027267,  0.333333343
   4827,    1.2495209,   23.8422794,  0.666666687
   4828,    1.2495209,   23.8422794,  0.333333343
   4829,   1.33020556,    25.381834,  0.666666687
   4830,   1.33020556,    25.381834,  0.333333343
   4831,   1.41089022,   26.9213886,  0.666666687
   4832,   1.41089022,   26.9213886,  0.333333343
   4833,   1.49157476,   28.4609413,  0.666666687
   4834,   1.49157476,   28.4609413,  0.333333343
   4835,   1.57225931,   30.0004959,  0.666666687
   4836,   1.57225931,   30.0004959,  0.333333343
   4837,   1.65294397,   31.5400505,  0.666666687
   4838,   1.65294397,   31.5400505,  0.333333343
   4839,   1.73362851,   33.0796051,  0.666666687
   4840,   1.73362851,   33.0796051,  0.333333343
   4841,   1.81431317,   34.6191597,  0.666666687
   4842,   1.81431317,   34.6191597,  0.333333343
   4843,   1.89499772,   36.1587105,  0.666666687
   4844,   1.89499772,   36.1587105,  0.333333343
   4845,   1.97568238,   37.6982651,  0.666666687
   4846,   1.97568238,   37.6982651,  0.333333343
   4847,   2.05636692,   39.2378197,  0.666666687
   4848,   2.05636692,   39.2378197,  0.333333343
   4849,   2.13705158,   40.7773705,  0.666666687
   4850,   2.13705158,   40.7773705,  0.333333343
   4851,   2.21773624,    42.316925,  0.666666687
   4852,   2.21773624,    42.316925,  0.333333343
   4853,   2.29842091,   43.8564835,  0.666666687
   4854,   2.29842091,   43.8564835,  0.333333343
   4855,   2.37910533,   45.3960342,  0.666666687
   4856,   2.37910533,   45.3960342,  0.333333343
   4857,   2.45978999,   46.9355888,  0.666666687
   4858,   2.45978999,   46.9355888,  0.333333343
   4859,   2.54047465,   48.4751434,  0.666666687
   4860,   2.54047465,   48.4751434,  0.333333343
   4861,   2.62115908,   50.0146942,  0.666666687
   4862,   2.62115908,   50.0146942,  0.333333343
   4863,   2.70184374,   51.5542488,  0.666666687
   4864,   2.70184374,   51.5542488,  0.333333343
   4865,    2.7825284,   53.0938034,  0.666666687
   4866,    2.7825284,   53.0938034,  0.333333343
   4867,   2.86321282,    54.633358,  0.666666687
   4868,   2.86321282,    54.633358,  0.333333343
*Element, type=C3D8R
  1,  596,   55,  538, 2751,   25,    1,   26,  313
  2, 2751,  538,  539, 2750,  313,   26,   27,  314
  3, 2750,  539,  540, 2749,  314,   27,   28,  315
  4, 2749,  540,  541, 2748,  315,   28,   29,  316
  5, 2748,  541,  542, 2747,  316,   29,   30,  317
  6, 2747,  542,  543, 2746,  317,   30,   31,  318
  7, 2746,  543,  544, 2745,  318,   31,   32,  319
  8, 2745,  544,  545, 2744,  319,   32,   33,  320
  9, 2744,  545,  546, 2743,  320,   33,   34,  321
 10, 2743,  546,  547, 2742,  321,   34,   35,  322
 11, 2742,  547,  548, 2741,  322,   35,   36,  323
 12, 2741,  548,  549, 2740,  323,   36,   37,  324
 13, 2740,  549,  550, 2739,  324,   37,   38,  325
 14, 2739,  550,  551, 2738,  325,   38,   39,  326
 15, 2738,  551,  552, 2737,  326,   39,   40,  327
 16,  552,  553, 2752, 2737,   40,   41,  328,  327
 17,  553,  554, 2753, 2752,   41,   42,  329,  328
 18,  554,  555, 2754, 2753,   42,   43,  330,  329
 19,  555,  556, 2755, 2754,   43,   44,  331,  330
 20,  556,  557, 2756, 2755,   44,   45,  332,  331
 21,  557,  558, 2757, 2756,   45,   46,  333,  332
 22,  558,  559, 2758, 2757,   46,   47,  334,  333
 23,  559,  560, 2759, 2758,   47,   48,  335,  334
 24,  560,  561, 2760, 2759,   48,   49,  336,  335
 25,  561,  562, 2761, 2760,   49,   50,  337,  336
 26,  562,  563, 2762, 2761,   50,   51,  338,  337
 27,  563,  564, 2763, 2762,   51,   52,  339,  338
 28,  564,  565, 2764, 2763,   52,   53,  340,  339
 29,  565,  566, 2765, 2764,   53,   54,  341,  340
 30,  566,   72,  626, 2765,   54,    2,   57,  341
 31,  626,  627, 2767, 2765,   57,   58,  342,  341
 32,  627,  628, 2768, 2767,   58,   59,  343,  342
 33,  628,  629, 2769, 2768,   59,   60,  344,  343
 34,  629,  630, 2770, 2769,   60,   61,  345,  344
 35,  630,  631, 2771, 2770,   61,   62,  346,  345
 36,  631,  632, 2772, 2771,   62,   63,  347,  346
 37,  632,  633, 2773, 2772,   63,   64,  348,  347
 38,  633,  634, 2774, 2773,   64,   65,  349,  348
 39,  634,  635, 2775, 2774,   65,   66,  350,  349
 40,  635,  636, 2776, 2775,   66,   67,  351,  350
 41,  636,  637, 2777, 2776,   67,   68,  352,  351
 42,  637,  638, 2778, 2777,   68,   69,  353,  352
 43,  638,  639, 2779, 2778,   69,   70,  354,  353
 44,  639,  640, 2780, 2779,   70,   71,  355,  354
 45,  640,   74,  597, 2780,   71,    3,   11,  355
 46, 2765, 2767, 2781, 2764,  341,  342,  356,  340
 47, 2767, 2768, 2782, 2781,  342,  343,  357,  356
 48, 2768, 2769, 2783, 2782,  343,  344,  358,  357
 49, 2769, 2770, 2784, 2783,  344,  345,  359,  358
 50, 2770, 2771, 2785, 2784,  345,  346,  360,  359
 51, 2771, 2772, 2786, 2785,  346,  347,  361,  360
 52, 2772, 2773, 2787, 2786,  347,  348,  362,  361
 53, 2773, 2774, 2788, 2787,  348,  349,  363,  362
 54, 2774, 2775, 2789, 2788,  349,  350,  364,  363
 55, 2775, 2776, 2790, 2789,  350,  351,  365,  364
 56, 2776, 2777, 2791, 2790,  351,  352,  366,  365
 57, 2777, 2778, 2792, 2791,  352,  353,  367,  366
 58, 2778, 2779, 2793, 2792,  353,  354,  368,  367
 59, 2779, 2780, 2794, 2793,  354,  355,  369,  368
 60, 2780,  597,  598, 2794,  355,   11,   12,  369
 61, 2764, 2781, 2795, 2763,  340,  356,  370,  339
 62, 2781, 2782, 2796, 2795,  356,  357,  371,  370
 63, 2782, 2783, 2797, 2796,  357,  358,  372,  371
 64, 2783, 2784, 2798, 2797,  358,  359,  373,  372
 65, 2784, 2785, 2799, 2798,  359,  360,  374,  373
 66, 2785, 2786, 2800, 2799,  360,  361,  375,  374
 67, 2786, 2787, 2801, 2800,  361,  362,  376,  375
 68, 2787, 2788, 2802, 2801,  362,  363,  377,  376
 69, 2788, 2789, 2803, 2802,  363,  364,  378,  377
 70, 2789, 2790, 2804, 2803,  364,  365,  379,  378
 71, 2790, 2791, 2805, 2804,  365,  366,  380,  379
 72, 2791, 2792, 2806, 2805,  366,  367,  381,  380
 73, 2792, 2793, 2807, 2806,  367,  368,  382,  381
 74, 2793, 2794, 2808, 2807,  368,  369,  383,  382
 75, 2794,  598,  599, 2808,  369,   12,   13,  383
 76, 2763, 2795, 2809, 2762,  339,  370,  384,  338
 77, 2795, 2796, 2810, 2809,  370,  371,  385,  384
 78, 2796, 2797, 2811, 2810,  371,  372,  386,  385
 79, 2797, 2798, 2812, 2811,  372,  373,  387,  386
 80, 2798, 2799, 2813, 2812,  373,  374,  388,  387
 81, 2799, 2800, 2814, 2813,  374,  375,  389,  388
 82, 2800, 2801, 2815, 2814,  375,  376,  390,  389
 83, 2801, 2802, 2816, 2815,  376,  377,  391,  390
 84, 2802, 2803, 2817, 2816,  377,  378,  392,  391
 85, 2803, 2804, 2818, 2817,  378,  379,  393,  392
 86, 2804, 2805, 2819, 2818,  379,  380,  394,  393
 87, 2805, 2806, 2820, 2819,  380,  381,  395,  394
 88, 2806, 2807, 2821, 2820,  381,  382,  396,  395
 89, 2807, 2808, 2822, 2821,  382,  383,  397,  396
 90, 2808,  599,  600, 2822,  383,   13,   14,  397
 91, 2762, 2809, 2823, 2761,  338,  384,  398,  337
 92, 2809, 2810, 2824, 2823,  384,  385,  399,  398
 93, 2810, 2811, 2825, 2824,  385,  386,  400,  399
 94, 2811, 2812, 2826, 2825,  386,  387,  401,  400
 95, 2812, 2813, 2827, 2826,  387,  388,  402,  401
 96, 2813, 2814, 2828, 2827,  388,  389,  403,  402
 97, 2814, 2815, 2829, 2828,  389,  390,  404,  403
 98, 2815, 2816, 2830, 2829,  390,  391,  405,  404
 99, 2816, 2817, 2831, 2830,  391,  392,  406,  405
100, 2817, 2818, 2832, 2831,  392,  393,  407,  406
101, 2818, 2819, 2833, 2832,  393,  394,  408,  407
102, 2819, 2820, 2834, 2833,  394,  395,  409,  408
103, 2820, 2821, 2835, 2834,  395,  396,  410,  409
104, 2821, 2822, 2836, 2835,  396,  397,  411,  410
105, 2822,  600,  601, 2836,  397,   14,   15,  411
106, 2761, 2823, 2837, 2760,  337,  398,  412,  336
107, 2823, 2824, 2838, 2837,  398,  399,  413,  412
108, 2824, 2825, 2839, 2838,  399,  400,  414,  413
109, 2825, 2826, 2840, 2839,  400,  401,  415,  414
110, 2826, 2827, 2841, 2840,  401,  402,  416,  415
111, 2827, 2828, 2842, 2841,  402,  403,  417,  416
112, 2828, 2829, 2843, 2842,  403,  404,  418,  417
113, 2829, 2830, 2844, 2843,  404,  405,  419,  418
114, 2830, 2831, 2845, 2844,  405,  406,  420,  419
115, 2831, 2832, 2846, 2845,  406,  407,  421,  420
116, 2832, 2833, 2847, 2846,  407,  408,  422,  421
117, 2833, 2834, 2848, 2847,  408,  409,  423,  422
118, 2834, 2835, 2849, 2848,  409,  410,  424,  423
119, 2835, 2836, 2850, 2849,  410,  411,  425,  424
120, 2836,  601,  602, 2850,  411,   15,   16,  425
121, 2760, 2837, 2851, 2759,  336,  412,  426,  335
122, 2837, 2838, 2852, 2851,  412,  413,  427,  426
123, 2838, 2839, 2853, 2852,  413,  414,  428,  427
124, 2839, 2840, 2854, 2853,  414,  415,  429,  428
125, 2840, 2841, 2855, 2854,  415,  416,  430,  429
126, 2841, 2842, 2856, 2855,  416,  417,  431,  430
127, 2842, 2843, 2857, 2856,  417,  418,  432,  431
128, 2843, 2844, 2858, 2857,  418,  419,  433,  432
129, 2844, 2845, 2859, 2858,  419,  420,  434,  433
130, 2845, 2846, 2860, 2859,  420,  421,  435,  434
131, 2846, 2847, 2861, 2860,  421,  422,  436,  435
132, 2847, 2848, 2862, 2861,  422,  423,  437,  436
133, 2848, 2849, 2863, 2862,  423,  424,  438,  437
134, 2849, 2850, 2864, 2863,  424,  425,  439,  438
135, 2850,  602,  603, 2864,  425,   16,   17,  439
136, 2759, 2851, 2865, 2758,  335,  426,  440,  334
137, 2851, 2852, 2866, 2865,  426,  427,  441,  440
138, 2852, 2853, 2867, 2866,  427,  428,  442,  441
139, 2853, 2854, 2868, 2867,  428,  429,  443,  442
140, 2854, 2855, 2869, 2868,  429,  430,  444,  443
141, 2855, 2856, 2870, 2869,  430,  431,  445,  444
142, 2856, 2857, 2871, 2870,  431,  432,  446,  445
143, 2857, 2858, 2872, 2871,  432,  433,  447,  446
144, 2858, 2859, 2873, 2872,  433,  434,  448,  447
145, 2859, 2860, 2874, 2873,  434,  435,  449,  448
146, 2860, 2861, 2875, 2874,  435,  436,  450,  449
147, 2861, 2862, 2876, 2875,  436,  437,  451,  450
148, 2862, 2863, 2877, 2876,  437,  438,  452,  451
149, 2863, 2864, 2878, 2877,  438,  439,  453,  452
150, 2864,  603,  604, 2878,  439,   17,   18,  453
151, 2758, 2865, 2879, 2757,  334,  440,  454,  333
152, 2865, 2866, 2880, 2879,  440,  441,  455,  454
153, 2866, 2867, 2881, 2880,  441,  442,  456,  455
154, 2867, 2868, 2882, 2881,  442,  443,  457,  456
155, 2868, 2869, 2883, 2882,  443,  444,  458,  457
156, 2869, 2870, 2884, 2883,  444,  445,  459,  458
157, 2870, 2871, 2885, 2884,  445,  446,  460,  459
158, 2871, 2872, 2886, 2885,  446,  447,  461,  460
159, 2872, 2873, 2887, 2886,  447,  448,  462,  461
160, 2873, 2874, 2888, 2887,  448,  449,  463,  462
161, 2874, 2875, 2889, 2888,  449,  450,  464,  463
162, 2875, 2876, 2890, 2889,  450,  451,  465,  464
163, 2876, 2877, 2891, 2890,  451,  452,  466,  465
164, 2877, 2878, 2892, 2891,  452,  453,  467,  466
165, 2878,  604,  605, 2892,  453,   18,   19,  467
166, 2757, 2879, 2893, 2756,  333,  454,  468,  332
167, 2879, 2880, 2894, 2893,  454,  455,  469,  468
168, 2880, 2881, 2895, 2894,  455,  456,  470,  469
169, 2881, 2882, 2896, 2895,  456,  457,  471,  470
170, 2882, 2883, 2897, 2896,  457,  458,  472,  471
171, 2883, 2884, 2898, 2897,  458,  459,  473,  472
172, 2884, 2885, 2899, 2898,  459,  460,  474,  473
173, 2885, 2886, 2900, 2899,  460,  461,  475,  474
174, 2886, 2887, 2901, 2900,  461,  462,  476,  475
175, 2887, 2888, 2902, 2901,  462,  463,  477,  476
176, 2888, 2889, 2903, 2902,  463,  464,  478,  477
177, 2889, 2890, 2904, 2903,  464,  465,  479,  478
178, 2890, 2891, 2905, 2904,  465,  466,  480,  479
179, 2891, 2892, 2906, 2905,  466,  467,  481,  480
180, 2892,  605,  606, 2906,  467,   19,   20,  481
181, 2756, 2893, 2907, 2755,  332,  468,  482,  331
182, 2893, 2894, 2908, 2907,  468,  469,  483,  482
183, 2894, 2895, 2909, 2908,  469,  470,  484,  483
184, 2895, 2896, 2910, 2909,  470,  471,  485,  484
185, 2896, 2897, 2911, 2910,  471,  472,  486,  485
186, 2897, 2898, 2912, 2911,  472,  473,  487,  486
187, 2898, 2899, 2913, 2912,  473,  474,  488,  487
188, 2899, 2900, 2914, 2913,  474,  475,  489,  488
189, 2900, 2901, 2915, 2914,  475,  476,  490,  489
190, 2901, 2902, 2916, 2915,  476,  477,  491,  490
191, 2902, 2903, 2917, 2916,  477,  478,  492,  491
192, 2903, 2904, 2918, 2917,  478,  479,  493,  492
193, 2904, 2905, 2919, 2918,  479,  480,  494,  493
194, 2905, 2906, 2920, 2919,  480,  481,  495,  494
195, 2906,  606,  607, 2920,  481,   20,   21,  495
196, 2755, 2907, 2921, 2754,  331,  482,  496,  330
197, 2907, 2908, 2922, 2921,  482,  483,  497,  496
198, 2908, 2909, 2923, 2922,  483,  484,  498,  497
199, 2909, 2910, 2924, 2923,  484,  485,  499,  498
200, 2910, 2911, 2925, 2924,  485,  486,  500,  499
201, 2911, 2912, 2926, 2925,  486,  487,  501,  500
202, 2912, 2913, 2927, 2926,  487,  488,  502,  501
203, 2913, 2914, 2928, 2927,  488,  489,  503,  502
204, 2914, 2915, 2929, 2928,  489,  490,  504,  503
205, 2915, 2916, 2930, 2929,  490,  491,  505,  504
206, 2916, 2917, 2931, 2930,  491,  492,  506,  505
207, 2917, 2918, 2932, 2931,  492,  493,  507,  506
208, 2918, 2919, 2933, 2932,  493,  494,  508,  507
209, 2919, 2920, 2934, 2933,  494,  495,  509,  508
210, 2920,  607,  608, 2934,  495,   21,   22,  509
211, 2754, 2921, 2935, 2753,  330,  496,  510,  329
212, 2921, 2922, 2936, 2935,  496,  497,  511,  510
213, 2922, 2923, 2937, 2936,  497,  498,  512,  511
214, 2923, 2924, 2938, 2937,  498,  499,  513,  512
215, 2924, 2925, 2939, 2938,  499,  500,  514,  513
216, 2925, 2926, 2940, 2939,  500,  501,  515,  514
217, 2926, 2927, 2941, 2940,  501,  502,  516,  515
218, 2927, 2928, 2942, 2941,  502,  503,  517,  516
219, 2928, 2929, 2943, 2942,  503,  504,  518,  517
220, 2929, 2930, 2944, 2943,  504,  505,  519,  518
221, 2930, 2931, 2945, 2944,  505,  506,  520,  519
222, 2931, 2932, 2946, 2945,  506,  507,  521,  520
223, 2932, 2933, 2947, 2946,  507,  508,  522,  521
224, 2933, 2934, 2948, 2947,  508,  509,  523,  522
225, 2934,  608,  609, 2948,  509,   22,   23,  523
226, 2753, 2935, 2949, 2752,  329,  510,  524,  328
227, 2935, 2936, 2950, 2949,  510,  511,  525,  524
228, 2936, 2937, 2951, 2950,  511,  512,  526,  525
229, 2937, 2938, 2952, 2951,  512,  513,  527,  526
230, 2938, 2939, 2953, 2952,  513,  514,  528,  527
231, 2939, 2940, 2954, 2953,  514,  515,  529,  528
232, 2940, 2941, 2955, 2954,  515,  516,  530,  529
233, 2941, 2942, 2956, 2955,  516,  517,  531,  530
234, 2942, 2943, 2957, 2956,  517,  518,  532,  531
235, 2943, 2944, 2958, 2957,  518,  519,  533,  532
236, 2944, 2945, 2959, 2958,  519,  520,  534,  533
237, 2945, 2946, 2960, 2959,  520,  521,  535,  534
238, 2946, 2947, 2961, 2960,  521,  522,  536,  535
239, 2947, 2948, 2962, 2961,  522,  523,  537,  536
240, 2948,  609,  610, 2962,  523,   23,   24,  537
241, 2752, 2949, 2738, 2737,  328,  524,  326,  327
242, 2949, 2950, 2739, 2738,  524,  525,  325,  326
243, 2950, 2951, 2740, 2739,  525,  526,  324,  325
244, 2951, 2952, 2741, 2740,  526,  527,  323,  324
245, 2952, 2953, 2742, 2741,  527,  528,  322,  323
246, 2953, 2954, 2743, 2742,  528,  529,  321,  322
247, 2954, 2955, 2744, 2743,  529,  530,  320,  321
248, 2955, 2956, 2745, 2744,  530,  531,  319,  320
249, 2956, 2957, 2746, 2745,  531,  532,  318,  319
250, 2957, 2958, 2747, 2746,  532,  533,  317,  318
251, 2958, 2959, 2748, 2747,  533,  534,  316,  317
252, 2959, 2960, 2749, 2748,  534,  535,  315,  316
253, 2960, 2961, 2750, 2749,  535,  536,  314,  315
254, 2961, 2962, 2751, 2750,  536,  537,  313,  314
255, 2962,  610,  596, 2751,  537,   24,   25,  313
256,  596,  611, 2963, 2751,   55,   56,  567,  538
257,  611,  105,  656, 2963,   56,    4,   76,  567
258, 2751, 2963, 2964, 2750,  538,  567,  568,  539
259, 2963,  656,  657, 2964,  567,   76,   77,  568
260, 2750, 2964, 2965, 2749,  539,  568,  569,  540
261, 2964,  657,  658, 2965,  568,   77,   78,  569
262, 2749, 2965, 2966, 2748,  540,  569,  570,  541
263, 2965,  658,  659, 2966,  569,   78,   79,  570
264, 2748, 2966, 2967, 2747,  541,  570,  571,  542
265, 2966,  659,  660, 2967,  570,   79,   80,  571
266, 2747, 2967, 2968, 2746,  542,  571,  572,  543
267, 2967,  660,  661, 2968,  571,   80,   81,  572
268, 2746, 2968, 2969, 2745,  543,  572,  573,  544
269, 2968,  661,  662, 2969,  572,   81,   82,  573
270, 2745, 2969, 2970, 2744,  544,  573,  574,  545
271, 2969,  662,  663, 2970,  573,   82,   83,  574
272, 2744, 2970, 2971, 2743,  545,  574,  575,  546
273, 2970,  663,  664, 2971,  574,   83,   84,  575
274, 2743, 2971, 2972, 2742,  546,  575,  576,  547
275, 2971,  664,  665, 2972,  575,   84,   85,  576
276, 2742, 2972, 2973, 2741,  547,  576,  577,  548
277, 2972,  665,  666, 2973,  576,   85,   86,  577
278, 2741, 2973, 2974, 2740,  548,  577,  578,  549
279, 2973,  666,  667, 2974,  577,   86,   87,  578
280, 2740, 2974, 2975, 2739,  549,  578,  579,  550
281, 2974,  667,  668, 2975,  578,   87,   88,  579
282, 2739, 2975, 2976, 2738,  550,  579,  580,  551
283, 2975,  668,  669, 2976,  579,   88,   89,  580
284, 2738, 2976, 2766, 2737,  551,  580,  581,  552
285, 2976,  669,  670, 2766,  580,   89,   90,  581
286,  670,  671, 2977, 2766,   90,   91,  582,  581
287,  671,  672, 2978, 2977,   91,   92,  583,  582
288,  672,  673, 2979, 2978,   92,   93,  584,  583
289,  673,  674, 2980, 2979,   93,   94,  585,  584
290,  674,  675, 2981, 2980,   94,   95,  586,  585
291,  675,  676, 2982, 2981,   95,   96,  587,  586
292,  676,  677, 2983, 2982,   96,   97,  588,  587
293,  677,  678, 2984, 2983,   97,   98,  589,  588
294,  678,  679, 2985, 2984,   98,   99,  590,  589
295,  679,  680, 2986, 2985,   99,  100,  591,  590
296,  680,  681, 2987, 2986,  100,  101,  592,  591
297,  681,  682, 2988, 2987,  101,  102,  593,  592
298,  682,  683, 2989, 2988,  102,  103,  594,  593
299,  683,  684, 2990, 2989,  103,  104,  595,  594
300,  684,  120,  641, 2990,  104,    5,   73,  595
301, 2766, 2977, 2752, 2737,  581,  582,  553,  552
302, 2977, 2978, 2753, 2752,  582,  583,  554,  553
303, 2978, 2979, 2754, 2753,  583,  584,  555,  554
304, 2979, 2980, 2755, 2754,  584,  585,  556,  555
305, 2980, 2981, 2756, 2755,  585,  586,  557,  556
306, 2981, 2982, 2757, 2756,  586,  587,  558,  557
307, 2982, 2983, 2758, 2757,  587,  588,  559,  558
308, 2983, 2984, 2759, 2758,  588,  589,  560,  559
309, 2984, 2985, 2760, 2759,  589,  590,  561,  560
310, 2985, 2986, 2761, 2760,  590,  591,  562,  561
311, 2986, 2987, 2762, 2761,  591,  592,  563,  562
312, 2987, 2988, 2763, 2762,  592,  593,  564,  563
313, 2988, 2989, 2764, 2763,  593,  594,  565,  564
314, 2989, 2990, 2765, 2764,  594,  595,  566,  565
315, 2990,  641,  626, 2765,  595,   73,   72,  566
316,  640,  642, 2991, 2780,   74,   75,  612,  597
317,  642,  134,  685, 2991,   75,    6,  119,  612
318, 2780, 2991, 2992, 2794,  597,  612,  613,  598
319, 2991,  685,  686, 2992,  612,  119,  118,  613
320, 2794, 2992, 2993, 2808,  598,  613,  614,  599
321, 2992,  686,  687, 2993,  613,  118,  117,  614
322, 2808, 2993, 2994, 2822,  599,  614,  615,  600
323, 2993,  687,  688, 2994,  614,  117,  116,  615
324, 2822, 2994, 2995, 2836,  600,  615,  616,  601
325, 2994,  688,  689, 2995,  615,  116,  115,  616
326, 2836, 2995, 2996, 2850,  601,  616,  617,  602
327, 2995,  689,  690, 2996,  616,  115,  114,  617
328, 2850, 2996, 2997, 2864,  602,  617,  618,  603
329, 2996,  690,  691, 2997,  617,  114,  113,  618
330, 2864, 2997, 2998, 2878,  603,  618,  619,  604
331, 2997,  691,  692, 2998,  618,  113,  112,  619
332, 2878, 2998, 2999, 2892,  604,  619,  620,  605
333, 2998,  692,  693, 2999,  619,  112,  111,  620
334, 2892, 2999, 3000, 2906,  605,  620,  621,  606
335, 2999,  693,  694, 3000,  620,  111,  110,  621
336, 2906, 3000, 3001, 2920,  606,  621,  622,  607
337, 3000,  694,  695, 3001,  621,  110,  109,  622
338, 2920, 3001, 3002, 2934,  607,  622,  623,  608
339, 3001,  695,  696, 3002,  622,  109,  108,  623
340, 2934, 3002, 3003, 2948,  608,  623,  624,  609
341, 3002,  696,  697, 3003,  623,  108,  107,  624
342, 2948, 3003, 3004, 2962,  609,  624,  625,  610
343, 3003,  697,  698, 3004,  624,  107,  106,  625
344, 2962, 3004, 2963, 2751,  610,  625,  611,  596
345, 3004,  698,  656, 2963,  625,  106,  105,  611
346,  639,  643, 3005, 2779,  640,  642, 2991, 2780
347,  643,  133,  699, 3005,  642,  134,  685, 2991
348, 2779, 3005, 3006, 2793, 2780, 2991, 2992, 2794
349, 3005,  699,  700, 3006, 2991,  685,  686, 2992
350, 2793, 3006, 3007, 2807, 2794, 2992, 2993, 2808
351, 3006,  700,  701, 3007, 2992,  686,  687, 2993
352, 2807, 3007, 3008, 2821, 2808, 2993, 2994, 2822
353, 3007,  701,  702, 3008, 2993,  687,  688, 2994
354, 2821, 3008, 3009, 2835, 2822, 2994, 2995, 2836
355, 3008,  702,  703, 3009, 2994,  688,  689, 2995
356, 2835, 3009, 3010, 2849, 2836, 2995, 2996, 2850
357, 3009,  703,  704, 3010, 2995,  689,  690, 2996
358, 2849, 3010, 3011, 2863, 2850, 2996, 2997, 2864
359, 3010,  704,  705, 3011, 2996,  690,  691, 2997
360, 2863, 3011, 3012, 2877, 2864, 2997, 2998, 2878
361, 3011,  705,  706, 3012, 2997,  691,  692, 2998
362, 2877, 3012, 3013, 2891, 2878, 2998, 2999, 2892
363, 3012,  706,  707, 3013, 2998,  692,  693, 2999
364, 2891, 3013, 3014, 2905, 2892, 2999, 3000, 2906
365, 3013,  707,  708, 3014, 2999,  693,  694, 3000
366, 2905, 3014, 3015, 2919, 2906, 3000, 3001, 2920
367, 3014,  708,  709, 3015, 3000,  694,  695, 3001
368, 2919, 3015, 3016, 2933, 2920, 3001, 3002, 2934
369, 3015,  709,  710, 3016, 3001,  695,  696, 3002
370, 2933, 3016, 3017, 2947, 2934, 3002, 3003, 2948
371, 3016,  710,  711, 3017, 3002,  696,  697, 3003
372, 2947, 3017, 3018, 2961, 2948, 3003, 3004, 2962
373, 3017,  711,  712, 3018, 3003,  697,  698, 3004
374, 2961, 3018, 2964, 2750, 2962, 3004, 2963, 2751
375, 3018,  712,  657, 2964, 3004,  698,  656, 2963
376,  638,  644, 3019, 2778,  639,  643, 3005, 2779
377,  644,  132,  713, 3019,  643,  133,  699, 3005
378, 2778, 3019, 3020, 2792, 2779, 3005, 3006, 2793
379, 3019,  713,  714, 3020, 3005,  699,  700, 3006
380, 2792, 3020, 3021, 2806, 2793, 3006, 3007, 2807
381, 3020,  714,  715, 3021, 3006,  700,  701, 3007
382, 2806, 3021, 3022, 2820, 2807, 3007, 3008, 2821
383, 3021,  715,  716, 3022, 3007,  701,  702, 3008
384, 2820, 3022, 3023, 2834, 2821, 3008, 3009, 2835
385, 3022,  716,  717, 3023, 3008,  702,  703, 3009
386, 2834, 3023, 3024, 2848, 2835, 3009, 3010, 2849
387, 3023,  717,  718, 3024, 3009,  703,  704, 3010
388, 2848, 3024, 3025, 2862, 2849, 3010, 3011, 2863
389, 3024,  718,  719, 3025, 3010,  704,  705, 3011
390, 2862, 3025, 3026, 2876, 2863, 3011, 3012, 2877
391, 3025,  719,  720, 3026, 3011,  705,  706, 3012
392, 2876, 3026, 3027, 2890, 2877, 3012, 3013, 2891
393, 3026,  720,  721, 3027, 3012,  706,  707, 3013
394, 2890, 3027, 3028, 2904, 2891, 3013, 3014, 2905
395, 3027,  721,  722, 3028, 3013,  707,  708, 3014
396, 2904, 3028, 3029, 2918, 2905, 3014, 3015, 2919
397, 3028,  722,  723, 3029, 3014,  708,  709, 3015
398, 2918, 3029, 3030, 2932, 2919, 3015, 3016, 2933
399, 3029,  723,  724, 3030, 3015,  709,  710, 3016
400, 2932, 3030, 3031, 2946, 2933, 3016, 3017, 2947
401, 3030,  724,  725, 3031, 3016,  710,  711, 3017
402, 2946, 3031, 3032, 2960, 2947, 3017, 3018, 2961
403, 3031,  725,  726, 3032, 3017,  711,  712, 3018
404, 2960, 3032, 2965, 2749, 2961, 3018, 2964, 2750
405, 3032,  726,  658, 2965, 3018,  712,  657, 2964
406,  637,  645, 3033, 2777,  638,  644, 3019, 2778
407,  645,  131,  727, 3033,  644,  132,  713, 3019
408, 2777, 3033, 3034, 2791, 2778, 3019, 3020, 2792
409, 3033,  727,  728, 3034, 3019,  713,  714, 3020
410, 2791, 3034, 3035, 2805, 2792, 3020, 3021, 2806
411, 3034,  728,  729, 3035, 3020,  714,  715, 3021
412, 2805, 3035, 3036, 2819, 2806, 3021, 3022, 2820
413, 3035,  729,  730, 3036, 3021,  715,  716, 3022
414, 2819, 3036, 3037, 2833, 2820, 3022, 3023, 2834
415, 3036,  730,  731, 3037, 3022,  716,  717, 3023
416, 2833, 3037, 3038, 2847, 2834, 3023, 3024, 2848
417, 3037,  731,  732, 3038, 3023,  717,  718, 3024
418, 2847, 3038, 3039, 2861, 2848, 3024, 3025, 2862
419, 3038,  732,  733, 3039, 3024,  718,  719, 3025
420, 2861, 3039, 3040, 2875, 2862, 3025, 3026, 2876
421, 3039,  733,  734, 3040, 3025,  719,  720, 3026
422, 2875, 3040, 3041, 2889, 2876, 3026, 3027, 2890
423, 3040,  734,  735, 3041, 3026,  720,  721, 3027
424, 2889, 3041, 3042, 2903, 2890, 3027, 3028, 2904
425, 3041,  735,  736, 3042, 3027,  721,  722, 3028
426, 2903, 3042, 3043, 2917, 2904, 3028, 3029, 2918
427, 3042,  736,  737, 3043, 3028,  722,  723, 3029
428, 2917, 3043, 3044, 2931, 2918, 3029, 3030, 2932
429, 3043,  737,  738, 3044, 3029,  723,  724, 3030
430, 2931, 3044, 3045, 2945, 2932, 3030, 3031, 2946
431, 3044,  738,  739, 3045, 3030,  724,  725, 3031
432, 2945, 3045, 3046, 2959, 2946, 3031, 3032, 2960
433, 3045,  739,  740, 3046, 3031,  725,  726, 3032
434, 2959, 3046, 2966, 2748, 2960, 3032, 2965, 2749
435, 3046,  740,  659, 2966, 3032,  726,  658, 2965
436,  636,  646, 3047, 2776,  637,  645, 3033, 2777
437,  646,  130,  741, 3047,  645,  131,  727, 3033
438, 2776, 3047, 3048, 2790, 2777, 3033, 3034, 2791
439, 3047,  741,  742, 3048, 3033,  727,  728, 3034
440, 2790, 3048, 3049, 2804, 2791, 3034, 3035, 2805
441, 3048,  742,  743, 3049, 3034,  728,  729, 3035
442, 2804, 3049, 3050, 2818, 2805, 3035, 3036, 2819
443, 3049,  743,  744, 3050, 3035,  729,  730, 3036
444, 2818, 3050, 3051, 2832, 2819, 3036, 3037, 2833
445, 3050,  744,  745, 3051, 3036,  730,  731, 3037
446, 2832, 3051, 3052, 2846, 2833, 3037, 3038, 2847
447, 3051,  745,  746, 3052, 3037,  731,  732, 3038
448, 2846, 3052, 3053, 2860, 2847, 3038, 3039, 2861
449, 3052,  746,  747, 3053, 3038,  732,  733, 3039
450, 2860, 3053, 3054, 2874, 2861, 3039, 3040, 2875
451, 3053,  747,  748, 3054, 3039,  733,  734, 3040
452, 2874, 3054, 3055, 2888, 2875, 3040, 3041, 2889
453, 3054,  748,  749, 3055, 3040,  734,  735, 3041
454, 2888, 3055, 3056, 2902, 2889, 3041, 3042, 2903
455, 3055,  749,  750, 3056, 3041,  735,  736, 3042
456, 2902, 3056, 3057, 2916, 2903, 3042, 3043, 2917
457, 3056,  750,  751, 3057, 3042,  736,  737, 3043
458, 2916, 3057, 3058, 2930, 2917, 3043, 3044, 2931
459, 3057,  751,  752, 3058, 3043,  737,  738, 3044
460, 2930, 3058, 3059, 2944, 2931, 3044, 3045, 2945
461, 3058,  752,  753, 3059, 3044,  738,  739, 3045
462, 2944, 3059, 3060, 2958, 2945, 3045, 3046, 2959
463, 3059,  753,  754, 3060, 3045,  739,  740, 3046
464, 2958, 3060, 2967, 2747, 2959, 3046, 2966, 2748
465, 3060,  754,  660, 2967, 3046,  740,  659, 2966
466,  635,  647, 3061, 2775,  636,  646, 3047, 2776
467,  647,  129,  755, 3061,  646,  130,  741, 3047
468, 2775, 3061, 3062, 2789, 2776, 3047, 3048, 2790
469, 3061,  755,  756, 3062, 3047,  741,  742, 3048
470, 2789, 3062, 3063, 2803, 2790, 3048, 3049, 2804
471, 3062,  756,  757, 3063, 3048,  742,  743, 3049
472, 2803, 3063, 3064, 2817, 2804, 3049, 3050, 2818
473, 3063,  757,  758, 3064, 3049,  743,  744, 3050
474, 2817, 3064, 3065, 2831, 2818, 3050, 3051, 2832
475, 3064,  758,  759, 3065, 3050,  744,  745, 3051
476, 2831, 3065, 3066, 2845, 2832, 3051, 3052, 2846
477, 3065,  759,  760, 3066, 3051,  745,  746, 3052
478, 2845, 3066, 3067, 2859, 2846, 3052, 3053, 2860
479, 3066,  760,  761, 3067, 3052,  746,  747, 3053
480, 2859, 3067, 3068, 2873, 2860, 3053, 3054, 2874
481, 3067,  761,  762, 3068, 3053,  747,  748, 3054
482, 2873, 3068, 3069, 2887, 2874, 3054, 3055, 2888
483, 3068,  762,  763, 3069, 3054,  748,  749, 3055
484, 2887, 3069, 3070, 2901, 2888, 3055, 3056, 2902
485, 3069,  763,  764, 3070, 3055,  749,  750, 3056
486, 2901, 3070, 3071, 2915, 2902, 3056, 3057, 2916
487, 3070,  764,  765, 3071, 3056,  750,  751, 3057
488, 2915, 3071, 3072, 2929, 2916, 3057, 3058, 2930
489, 3071,  765,  766, 3072, 3057,  751,  752, 3058
490, 2929, 3072, 3073, 2943, 2930, 3058, 3059, 2944
491, 3072,  766,  767, 3073, 3058,  752,  753, 3059
492, 2943, 3073, 3074, 2957, 2944, 3059, 3060, 2958
493, 3073,  767,  768, 3074, 3059,  753,  754, 3060
494, 2957, 3074, 2968, 2746, 2958, 3060, 2967, 2747
495, 3074,  768,  661, 2968, 3060,  754,  660, 2967
496,  634,  648, 3075, 2774,  635,  647, 3061, 2775
497,  648,  128,  769, 3075,  647,  129,  755, 3061
498, 2774, 3075, 3076, 2788, 2775, 3061, 3062, 2789
499, 3075,  769,  770, 3076, 3061,  755,  756, 3062
500, 2788, 3076, 3077, 2802, 2789, 3062, 3063, 2803
501, 3076,  770,  771, 3077, 3062,  756,  757, 3063
502, 2802, 3077, 3078, 2816, 2803, 3063, 3064, 2817
503, 3077,  771,  772, 3078, 3063,  757,  758, 3064
504, 2816, 3078, 3079, 2830, 2817, 3064, 3065, 2831
505, 3078,  772,  773, 3079, 3064,  758,  759, 3065
506, 2830, 3079, 3080, 2844, 2831, 3065, 3066, 2845
507, 3079,  773,  774, 3080, 3065,  759,  760, 3066
508, 2844, 3080, 3081, 2858, 2845, 3066, 3067, 2859
509, 3080,  774,  775, 3081, 3066,  760,  761, 3067
510, 2858, 3081, 3082, 2872, 2859, 3067, 3068, 2873
511, 3081,  775,  776, 3082, 3067,  761,  762, 3068
512, 2872, 3082, 3083, 2886, 2873, 3068, 3069, 2887
513, 3082,  776,  777, 3083, 3068,  762,  763, 3069
514, 2886, 3083, 3084, 2900, 2887, 3069, 3070, 2901
515, 3083,  777,  778, 3084, 3069,  763,  764, 3070
516, 2900, 3084, 3085, 2914, 2901, 3070, 3071, 2915
517, 3084,  778,  779, 3085, 3070,  764,  765, 3071
518, 2914, 3085, 3086, 2928, 2915, 3071, 3072, 2929
519, 3085,  779,  780, 3086, 3071,  765,  766, 3072
520, 2928, 3086, 3087, 2942, 2929, 3072, 3073, 2943
521, 3086,  780,  781, 3087, 3072,  766,  767, 3073
522, 2942, 3087, 3088, 2956, 2943, 3073, 3074, 2957
523, 3087,  781,  782, 3088, 3073,  767,  768, 3074
524, 2956, 3088, 2969, 2745, 2957, 3074, 2968, 2746
525, 3088,  782,  662, 2969, 3074,  768,  661, 2968
526,  633,  649, 3089, 2773,  634,  648, 3075, 2774
527,  649,  127,  783, 3089,  648,  128,  769, 3075
528, 2773, 3089, 3090, 2787, 2774, 3075, 3076, 2788
529, 3089,  783,  784, 3090, 3075,  769,  770, 3076
530, 2787, 3090, 3091, 2801, 2788, 3076, 3077, 2802
531, 3090,  784,  785, 3091, 3076,  770,  771, 3077
532, 2801, 3091, 3092, 2815, 2802, 3077, 3078, 2816
533, 3091,  785,  786, 3092, 3077,  771,  772, 3078
534, 2815, 3092, 3093, 2829, 2816, 3078, 3079, 2830
535, 3092,  786,  787, 3093, 3078,  772,  773, 3079
536, 2829, 3093, 3094, 2843, 2830, 3079, 3080, 2844
537, 3093,  787,  788, 3094, 3079,  773,  774, 3080
538, 2843, 3094, 3095, 2857, 2844, 3080, 3081, 2858
539, 3094,  788,  789, 3095, 3080,  774,  775, 3081
540, 2857, 3095, 3096, 2871, 2858, 3081, 3082, 2872
541, 3095,  789,  790, 3096, 3081,  775,  776, 3082
542, 2871, 3096, 3097, 2885, 2872, 3082, 3083, 2886
543, 3096,  790,  791, 3097, 3082,  776,  777, 3083
544, 2885, 3097, 3098, 2899, 2886, 3083, 3084, 2900
545, 3097,  791,  792, 3098, 3083,  777,  778, 3084
546, 2899, 3098, 3099, 2913, 2900, 3084, 3085, 2914
547, 3098,  792,  793, 3099, 3084,  778,  779, 3085
548, 2913, 3099, 3100, 2927, 2914, 3085, 3086, 2928
549, 3099,  793,  794, 3100, 3085,  779,  780, 3086
550, 2927, 3100, 3101, 2941, 2928, 3086, 3087, 2942
551, 3100,  794,  795, 3101, 3086,  780,  781, 3087
552, 2941, 3101, 3102, 2955, 2942, 3087, 3088, 2956
553, 3101,  795,  796, 3102, 3087,  781,  782, 3088
554, 2955, 3102, 2970, 2744, 2956, 3088, 2969, 2745
555, 3102,  796,  663, 2970, 3088,  782,  662, 2969
556,  632,  650, 3103, 2772,  633,  649, 3089, 2773
557,  650,  126,  797, 3103,  649,  127,  783, 3089
558, 2772, 3103, 3104, 2786, 2773, 3089, 3090, 2787
559, 3103,  797,  798, 3104, 3089,  783,  784, 3090
560, 2786, 3104, 3105, 2800, 2787, 3090, 3091, 2801
561, 3104,  798,  799, 3105, 3090,  784,  785, 3091
562, 2800, 3105, 3106, 2814, 2801, 3091, 3092, 2815
563, 3105,  799,  800, 3106, 3091,  785,  786, 3092
564, 2814, 3106, 3107, 2828, 2815, 3092, 3093, 2829
565, 3106,  800,  801, 3107, 3092,  786,  787, 3093
566, 2828, 3107, 3108, 2842, 2829, 3093, 3094, 2843
567, 3107,  801,  802, 3108, 3093,  787,  788, 3094
568, 2842, 3108, 3109, 2856, 2843, 3094, 3095, 2857
569, 3108,  802,  803, 3109, 3094,  788,  789, 3095
570, 2856, 3109, 3110, 2870, 2857, 3095, 3096, 2871
571, 3109,  803,  804, 3110, 3095,  789,  790, 3096
572, 2870, 3110, 3111, 2884, 2871, 3096, 3097, 2885
573, 3110,  804,  805, 3111, 3096,  790,  791, 3097
574, 2884, 3111, 3112, 2898, 2885, 3097, 3098, 2899
575, 3111,  805,  806, 3112, 3097,  791,  792, 3098
576, 2898, 3112, 3113, 2912, 2899, 3098, 3099, 2913
577, 3112,  806,  807, 3113, 3098,  792,  793, 3099
578, 2912, 3113, 3114, 2926, 2913, 3099, 3100, 2927
579, 3113,  807,  808, 3114, 3099,  793,  794, 3100
580, 2926, 3114, 3115, 2940, 2927, 3100, 3101, 2941
581, 3114,  808,  809, 3115, 3100,  794,  795, 3101
582, 2940, 3115, 3116, 2954, 2941, 3101, 3102, 2955
583, 3115,  809,  810, 3116, 3101,  795,  796, 3102
584, 2954, 3116, 2971, 2743, 2955, 3102, 2970, 2744
585, 3116,  810,  664, 2971, 3102,  796,  663, 2970
586,  631,  651, 3117, 2771,  632,  650, 3103, 2772
587,  651,  125,  811, 3117,  650,  126,  797, 3103
588, 2771, 3117, 3118, 2785, 2772, 3103, 3104, 2786
589, 3117,  811,  812, 3118, 3103,  797,  798, 3104
590, 2785, 3118, 3119, 2799, 2786, 3104, 3105, 2800
591, 3118,  812,  813, 3119, 3104,  798,  799, 3105
592, 2799, 3119, 3120, 2813, 2800, 3105, 3106, 2814
593, 3119,  813,  814, 3120, 3105,  799,  800, 3106
594, 2813, 3120, 3121, 2827, 2814, 3106, 3107, 2828
595, 3120,  814,  815, 3121, 3106,  800,  801, 3107
596, 2827, 3121, 3122, 2841, 2828, 3107, 3108, 2842
597, 3121,  815,  816, 3122, 3107,  801,  802, 3108
598, 2841, 3122, 3123, 2855, 2842, 3108, 3109, 2856
599, 3122,  816,  817, 3123, 3108,  802,  803, 3109
600, 2855, 3123, 3124, 2869, 2856, 3109, 3110, 2870
601, 3123,  817,  818, 3124, 3109,  803,  804, 3110
602, 2869, 3124, 3125, 2883, 2870, 3110, 3111, 2884
603, 3124,  818,  819, 3125, 3110,  804,  805, 3111
604, 2883, 3125, 3126, 2897, 2884, 3111, 3112, 2898
605, 3125,  819,  820, 3126, 3111,  805,  806, 3112
606, 2897, 3126, 3127, 2911, 2898, 3112, 3113, 2912
607, 3126,  820,  821, 3127, 3112,  806,  807, 3113
608, 2911, 3127, 3128, 2925, 2912, 3113, 3114, 2926
609, 3127,  821,  822, 3128, 3113,  807,  808, 3114
610, 2925, 3128, 3129, 2939, 2926, 3114, 3115, 2940
611, 3128,  822,  823, 3129, 3114,  808,  809, 3115
612, 2939, 3129, 3130, 2953, 2940, 3115, 3116, 2954
613, 3129,  823,  824, 3130, 3115,  809,  810, 3116
614, 2953, 3130, 2972, 2742, 2954, 3116, 2971, 2743
615, 3130,  824,  665, 2972, 3116,  810,  664, 2971
616,  630,  652, 3131, 2770,  631,  651, 3117, 2771
617,  652,  124,  825, 3131,  651,  125,  811, 3117
618, 2770, 3131, 3132, 2784, 2771, 3117, 3118, 2785
619, 3131,  825,  826, 3132, 3117,  811,  812, 3118
620, 2784, 3132, 3133, 2798, 2785, 3118, 3119, 2799
621, 3132,  826,  827, 3133, 3118,  812,  813, 3119
622, 2798, 3133, 3134, 2812, 2799, 3119, 3120, 2813
623, 3133,  827,  828, 3134, 3119,  813,  814, 3120
624, 2812, 3134, 3135, 2826, 2813, 3120, 3121, 2827
625, 3134,  828,  829, 3135, 3120,  814,  815, 3121
626, 2826, 3135, 3136, 2840, 2827, 3121, 3122, 2841
627, 3135,  829,  830, 3136, 3121,  815,  816, 3122
628, 2840, 3136, 3137, 2854, 2841, 3122, 3123, 2855
629, 3136,  830,  831, 3137, 3122,  816,  817, 3123
630, 2854, 3137, 3138, 2868, 2855, 3123, 3124, 2869
631, 3137,  831,  832, 3138, 3123,  817,  818, 3124
632, 2868, 3138, 3139, 2882, 2869, 3124, 3125, 2883
633, 3138,  832,  833, 3139, 3124,  818,  819, 3125
634, 2882, 3139, 3140, 2896, 2883, 3125, 3126, 2897
635, 3139,  833,  834, 3140, 3125,  819,  820, 3126
636, 2896, 3140, 3141, 2910, 2897, 3126, 3127, 2911
637, 3140,  834,  835, 3141, 3126,  820,  821, 3127
638, 2910, 3141, 3142, 2924, 2911, 3127, 3128, 2925
639, 3141,  835,  836, 3142, 3127,  821,  822, 3128
640, 2924, 3142, 3143, 2938, 2925, 3128, 3129, 2939
641, 3142,  836,  837, 3143, 3128,  822,  823, 3129
642, 2938, 3143, 3144, 2952, 2939, 3129, 3130, 2953
643, 3143,  837,  838, 3144, 3129,  823,  824, 3130
644, 2952, 3144, 2973, 2741, 2953, 3130, 2972, 2742
645, 3144,  838,  666, 2973, 3130,  824,  665, 2972
646,  629,  653, 3145, 2769,  630,  652, 3131, 2770
647,  653,  123,  839, 3145,  652,  124,  825, 3131
648, 2769, 3145, 3146, 2783, 2770, 3131, 3132, 2784
649, 3145,  839,  840, 3146, 3131,  825,  826, 3132
650, 2783, 3146, 3147, 2797, 2784, 3132, 3133, 2798
651, 3146,  840,  841, 3147, 3132,  826,  827, 3133
652, 2797, 3147, 3148, 2811, 2798, 3133, 3134, 2812
653, 3147,  841,  842, 3148, 3133,  827,  828, 3134
654, 2811, 3148, 3149, 2825, 2812, 3134, 3135, 2826
655, 3148,  842,  843, 3149, 3134,  828,  829, 3135
656, 2825, 3149, 3150, 2839, 2826, 3135, 3136, 2840
657, 3149,  843,  844, 3150, 3135,  829,  830, 3136
658, 2839, 3150, 3151, 2853, 2840, 3136, 3137, 2854
659, 3150,  844,  845, 3151, 3136,  830,  831, 3137
660, 2853, 3151, 3152, 2867, 2854, 3137, 3138, 2868
661, 3151,  845,  846, 3152, 3137,  831,  832, 3138
662, 2867, 3152, 3153, 2881, 2868, 3138, 3139, 2882
663, 3152,  846,  847, 3153, 3138,  832,  833, 3139
664, 2881, 3153, 3154, 2895, 2882, 3139, 3140, 2896
665, 3153,  847,  848, 3154, 3139,  833,  834, 3140
666, 2895, 3154, 3155, 2909, 2896, 3140, 3141, 2910
667, 3154,  848,  849, 3155, 3140,  834,  835, 3141
668, 2909, 3155, 3156, 2923, 2910, 3141, 3142, 2924
669, 3155,  849,  850, 3156, 3141,  835,  836, 3142
670, 2923, 3156, 3157, 2937, 2924, 3142, 3143, 2938
671, 3156,  850,  851, 3157, 3142,  836,  837, 3143
672, 2937, 3157, 3158, 2951, 2938, 3143, 3144, 2952
673, 3157,  851,  852, 3158, 3143,  837,  838, 3144
674, 2951, 3158, 2974, 2740, 2952, 3144, 2973, 2741
675, 3158,  852,  667, 2974, 3144,  838,  666, 2973
676,  628,  654, 3159, 2768,  629,  653, 3145, 2769
677,  654,  122,  853, 3159,  653,  123,  839, 3145
678, 2768, 3159, 3160, 2782, 2769, 3145, 3146, 2783
679, 3159,  853,  854, 3160, 3145,  839,  840, 3146
680, 2782, 3160, 3161, 2796, 2783, 3146, 3147, 2797
681, 3160,  854,  855, 3161, 3146,  840,  841, 3147
682, 2796, 3161, 3162, 2810, 2797, 3147, 3148, 2811
683, 3161,  855,  856, 3162, 3147,  841,  842, 3148
684, 2810, 3162, 3163, 2824, 2811, 3148, 3149, 2825
685, 3162,  856,  857, 3163, 3148,  842,  843, 3149
686, 2824, 3163, 3164, 2838, 2825, 3149, 3150, 2839
687, 3163,  857,  858, 3164, 3149,  843,  844, 3150
688, 2838, 3164, 3165, 2852, 2839, 3150, 3151, 2853
689, 3164,  858,  859, 3165, 3150,  844,  845, 3151
690, 2852, 3165, 3166, 2866, 2853, 3151, 3152, 2867
691, 3165,  859,  860, 3166, 3151,  845,  846, 3152
692, 2866, 3166, 3167, 2880, 2867, 3152, 3153, 2881
693, 3166,  860,  861, 3167, 3152,  846,  847, 3153
694, 2880, 3167, 3168, 2894, 2881, 3153, 3154, 2895
695, 3167,  861,  862, 3168, 3153,  847,  848, 3154
696, 2894, 3168, 3169, 2908, 2895, 3154, 3155, 2909
697, 3168,  862,  863, 3169, 3154,  848,  849, 3155
698, 2908, 3169, 3170, 2922, 2909, 3155, 3156, 2923
699, 3169,  863,  864, 3170, 3155,  849,  850, 3156
700, 2922, 3170, 3171, 2936, 2923, 3156, 3157, 2937
701, 3170,  864,  865, 3171, 3156,  850,  851, 3157
702, 2936, 3171, 3172, 2950, 2937, 3157, 3158, 2951
703, 3171,  865,  866, 3172, 3157,  851,  852, 3158
704, 2950, 3172, 2975, 2739, 2951, 3158, 2974, 2740
705, 3172,  866,  668, 2975, 3158,  852,  667, 2974
706,  627,  655, 3173, 2767,  628,  654, 3159, 2768
707,  655,  121,  867, 3173,  654,  122,  853, 3159
708, 2767, 3173, 3174, 2781, 2768, 3159, 3160, 2782
709, 3173,  867,  868, 3174, 3159,  853,  854, 3160
710, 2781, 3174, 3175, 2795, 2782, 3160, 3161, 2796
711, 3174,  868,  869, 3175, 3160,  854,  855, 3161
712, 2795, 3175, 3176, 2809, 2796, 3161, 3162, 2810
713, 3175,  869,  870, 3176, 3161,  855,  856, 3162
714, 2809, 3176, 3177, 2823, 2810, 3162, 3163, 2824
715, 3176,  870,  871, 3177, 3162,  856,  857, 3163
716, 2823, 3177, 3178, 2837, 2824, 3163, 3164, 2838
717, 3177,  871,  872, 3178, 3163,  857,  858, 3164
718, 2837, 3178, 3179, 2851, 2838, 3164, 3165, 2852
719, 3178,  872,  873, 3179, 3164,  858,  859, 3165
720, 2851, 3179, 3180, 2865, 2852, 3165, 3166, 2866
721, 3179,  873,  874, 3180, 3165,  859,  860, 3166
722, 2865, 3180, 3181, 2879, 2866, 3166, 3167, 2880
723, 3180,  874,  875, 3181, 3166,  860,  861, 3167
724, 2879, 3181, 3182, 2893, 2880, 3167, 3168, 2894
725, 3181,  875,  876, 3182, 3167,  861,  862, 3168
726, 2893, 3182, 3183, 2907, 2894, 3168, 3169, 2908
727, 3182,  876,  877, 3183, 3168,  862,  863, 3169
728, 2907, 3183, 3184, 2921, 2908, 3169, 3170, 2922
729, 3183,  877,  878, 3184, 3169,  863,  864, 3170
730, 2921, 3184, 3185, 2935, 2922, 3170, 3171, 2936
731, 3184,  878,  879, 3185, 3170,  864,  865, 3171
732, 2935, 3185, 3186, 2949, 2936, 3171, 3172, 2950
733, 3185,  879,  880, 3186, 3171,  865,  866, 3172
734, 2949, 3186, 2976, 2738, 2950, 3172, 2975, 2739
735, 3186,  880,  669, 2976, 3172,  866,  668, 2975
736,  626,  641, 2990, 2765,  627,  655, 3173, 2767
737,  641,  120,  684, 2990,  655,  121,  867, 3173
738, 2765, 2990, 2989, 2764, 2767, 3173, 3174, 2781
739, 2990,  684,  683, 2989, 3173,  867,  868, 3174
740, 2764, 2989, 2988, 2763, 2781, 3174, 3175, 2795
741, 2989,  683,  682, 2988, 3174,  868,  869, 3175
742, 2763, 2988, 2987, 2762, 2795, 3175, 3176, 2809
743, 2988,  682,  681, 2987, 3175,  869,  870, 3176
744, 2762, 2987, 2986, 2761, 2809, 3176, 3177, 2823
745, 2987,  681,  680, 2986, 3176,  870,  871, 3177
746, 2761, 2986, 2985, 2760, 2823, 3177, 3178, 2837
747, 2986,  680,  679, 2985, 3177,  871,  872, 3178
748, 2760, 2985, 2984, 2759, 2837, 3178, 3179, 2851
749, 2985,  679,  678, 2984, 3178,  872,  873, 3179
750, 2759, 2984, 2983, 2758, 2851, 3179, 3180, 2865
751, 2984,  678,  677, 2983, 3179,  873,  874, 3180
752, 2758, 2983, 2982, 2757, 2865, 3180, 3181, 2879
753, 2983,  677,  676, 2982, 3180,  874,  875, 3181
754, 2757, 2982, 2981, 2756, 2879, 3181, 3182, 2893
755, 2982,  676,  675, 2981, 3181,  875,  876, 3182
756, 2756, 2981, 2980, 2755, 2893, 3182, 3183, 2907
757, 2981,  675,  674, 2980, 3182,  876,  877, 3183
758, 2755, 2980, 2979, 2754, 2907, 3183, 3184, 2921
759, 2980,  674,  673, 2979, 3183,  877,  878, 3184
760, 2754, 2979, 2978, 2753, 2921, 3184, 3185, 2935
761, 2979,  673,  672, 2978, 3184,  878,  879, 3185
762, 2753, 2978, 2977, 2752, 2935, 3185, 3186, 2949
763, 2978,  672,  671, 2977, 3185,  879,  880, 3186
764, 2752, 2977, 2766, 2737, 2949, 3186, 2976, 2738
765, 2977,  671,  670, 2766, 3186,  880,  669, 2976
 766,  194,  881,   73,    5, 1055, 3187,  595,  104
 767,  881,  882,   72,   73, 3187, 3188,  566,  595
 768,  882,  135,    2,   72, 3188, 1924,   54,  566
 769,  193,  883,  881,  194, 1056, 3189, 3187, 1055
 770,  883,  884,  882,  881, 3189, 3190, 3188, 3187
 771,  884,  136,  135,  882, 3190, 1923, 1924, 3188
 772,  192,  885,  883,  193, 1057, 3191, 3189, 1056
 773,  885,  886,  884,  883, 3191, 3192, 3190, 3189
 774,  886,  137,  136,  884, 3192, 1922, 1923, 3190
 775,  191,  887,  885,  192, 1058, 3193, 3191, 1057
 776,  887,  888,  886,  885, 3193, 3194, 3192, 3191
 777,  888,  138,  137,  886, 3194, 1921, 1922, 3192
 778,  190,  889,  887,  191, 1059, 3195, 3193, 1058
 779,  889,  890,  888,  887, 3195, 3196, 3194, 3193
 780,  890,  139,  138,  888, 3196, 1920, 1921, 3194
 781,  189,  891,  889,  190, 1060, 3197, 3195, 1059
 782,  891,  892,  890,  889, 3197, 3198, 3196, 3195
 783,  892,  140,  139,  890, 3198, 1919, 1920, 3196
 784,  188,  893,  891,  189, 1061, 3199, 3197, 1060
 785,  893,  894,  892,  891, 3199, 3200, 3198, 3197
 786,  894,  141,  140,  892, 3200, 1918, 1919, 3198
 787,  187,  895,  893,  188, 1062, 3201, 3199, 1061
 788,  895,  896,  894,  893, 3201, 3202, 3200, 3199
 789,  896,  142,  141,  894, 3202, 1917, 1918, 3200
 790,  186,  897,  895,  187, 1063, 3203, 3201, 1062
 791,  897,  898,  896,  895, 3203, 3204, 3202, 3201
 792,  898,  143,  142,  896, 3204, 1916, 1917, 3202
 793,  185,  899,  897,  186, 1064, 3205, 3203, 1063
 794,  899,  900,  898,  897, 3205, 3206, 3204, 3203
 795,  900,  144,  143,  898, 3206, 1915, 1916, 3204
 796,  184,  901,  899,  185, 1065, 3207, 3205, 1064
 797,  901,  902,  900,  899, 3207, 3208, 3206, 3205
 798,  902,  145,  144,  900, 3208, 1914, 1915, 3206
 799,  183,  903,  901,  184, 1066, 3209, 3207, 1065
 800,  903,  904,  902,  901, 3209, 3210, 3208, 3207
 801,  904,  146,  145,  902, 3210, 1913, 1914, 3208
 802,  182,  905,  903,  183, 1067, 3211, 3209, 1066
 803,  905,  906,  904,  903, 3211, 3212, 3210, 3209
 804,  906,  147,  146,  904, 3212, 1912, 1913, 3210
 805,  181,  907,  905,  182, 1068, 3213, 3211, 1067
 806,  907,  908,  906,  905, 3213, 3214, 3212, 3211
 807,  908,  148,  147,  906, 3214, 1911, 1912, 3212
 808,  180,  909,  907,  181, 1069, 3215, 3213, 1068
 809,  909,  910,  908,  907, 3215, 3216, 3214, 3213
 810,  910,  149,  148,  908, 3216, 1910, 1911, 3214
 811,  179,  911,  909,  180, 1070, 3217, 3215, 1069
 812,  911,  912,  910,  909, 3217, 3218, 3216, 3215
 813,  912,  150,  149,  910, 3218, 1909, 1910, 3216
 814,  178,  913,  911,  179, 1071, 3219, 3217, 1070
 815,  913,  914,  912,  911, 3219, 3220, 3218, 3217
 816,  914,  151,  150,  912, 3220, 1908, 1909, 3218
 817,  177,  915,  913,  178, 1072, 3221, 3219, 1071
 818,  915,  916,  914,  913, 3221, 3222, 3220, 3219
 819,  916,  152,  151,  914, 3222, 1907, 1908, 3220
 820,  176,  917,  915,  177, 1073, 3223, 3221, 1072
 821,  917,  918,  916,  915, 3223, 3224, 3222, 3221
 822,  918,  153,  152,  916, 3224, 1906, 1907, 3222
 823,  175,  919,  917,  176, 1074, 3225, 3223, 1073
 824,  919,  920,  918,  917, 3225, 3226, 3224, 3223
 825,  920,  154,  153,  918, 3226, 1905, 1906, 3224
 826,  174,  921,  919,  175, 1075, 3227, 3225, 1074
 827,  921,  922,  920,  919, 3227, 3228, 3226, 3225
 828,  922,  155,  154,  920, 3228, 1904, 1905, 3226
 829,  173,  923,  921,  174, 1076, 3229, 3227, 1075
 830,  923,  924,  922,  921, 3229, 3230, 3228, 3227
 831,  924,  156,  155,  922, 3230, 1903, 1904, 3228
 832,  172,  925,  923,  173, 1077, 3231, 3229, 1076
 833,  925,  926,  924,  923, 3231, 3232, 3230, 3229
 834,  926,  157,  156,  924, 3232, 1902, 1903, 3230
 835,  171,  927,  925,  172, 1078, 3233, 3231, 1077
 836,  927,  928,  926,  925, 3233, 3234, 3232, 3231
 837,  928,  158,  157,  926, 3234, 1901, 1902, 3232
 838,  170,  929,  927,  171, 1079, 3235, 3233, 1078
 839,  929,  930,  928,  927, 3235, 3236, 3234, 3233
 840,  930,  159,  158,  928, 3236, 1900, 1901, 3234
 841,  169,  931,  929,  170, 1080, 3237, 3235, 1079
 842,  931,  932,  930,  929, 3237, 3238, 3236, 3235
 843,  932,  160,  159,  930, 3238, 1899, 1900, 3236
 844,  168,  933,  931,  169, 1081, 3239, 3237, 1080
 845,  933,  934,  932,  931, 3239, 3240, 3238, 3237
 846,  934,  161,  160,  932, 3240, 1898, 1899, 3238
 847,  167,  935,  933,  168, 1082, 3241, 3239, 1081
 848,  935,  936,  934,  933, 3241, 3242, 3240, 3239
 849,  936,  162,  161,  934, 3242, 1897, 1898, 3240
 850,  166,  937,  935,  167, 1083, 3243, 3241, 1082
 851,  937,  938,  936,  935, 3243, 3244, 3242, 3241
 852,  938,  163,  162,  936, 3244, 1896, 1897, 3242
 853,    8,  165,  937,  166,  252,  997, 3243, 1083
 854,  165,  164,  938,  937,  997,  998, 3244, 3243
 855,  164,    7,  163,  938,  998,  195, 1896, 3244
 856, 1055, 3187,  595,  104, 1084, 3245,  594,  103
 857, 3187, 3188,  566,  595, 3245, 3246,  565,  594
 858, 3188, 1924,   54,  566, 3246, 1953,   53,  565
 859, 1056, 3189, 3187, 1055, 1085, 3247, 3245, 1084
 860, 3189, 3190, 3188, 3187, 3247, 3248, 3246, 3245
 861, 3190, 1923, 1924, 3188, 3248, 1952, 1953, 3246
 862, 1057, 3191, 3189, 1056, 1086, 3249, 3247, 1085
 863, 3191, 3192, 3190, 3189, 3249, 3250, 3248, 3247
 864, 3192, 1922, 1923, 3190, 3250, 1951, 1952, 3248
 865, 1058, 3193, 3191, 1057, 1087, 3251, 3249, 1086
 866, 3193, 3194, 3192, 3191, 3251, 3252, 3250, 3249
 867, 3194, 1921, 1922, 3192, 3252, 1950, 1951, 3250
 868, 1059, 3195, 3193, 1058, 1088, 3253, 3251, 1087
 869, 3195, 3196, 3194, 3193, 3253, 3254, 3252, 3251
 870, 3196, 1920, 1921, 3194, 3254, 1949, 1950, 3252
 871, 1060, 3197, 3195, 1059, 1089, 3255, 3253, 1088
 872, 3197, 3198, 3196, 3195, 3255, 3256, 3254, 3253
 873, 3198, 1919, 1920, 3196, 3256, 1948, 1949, 3254
 874, 1061, 3199, 3197, 1060, 1090, 3257, 3255, 1089
 875, 3199, 3200, 3198, 3197, 3257, 3258, 3256, 3255
 876, 3200, 1918, 1919, 3198, 3258, 1947, 1948, 3256
 877, 1062, 3201, 3199, 1061, 1091, 3259, 3257, 1090
 878, 3201, 3202, 3200, 3199, 3259, 3260, 3258, 3257
 879, 3202, 1917, 1918, 3200, 3260, 1946, 1947, 3258
 880, 1063, 3203, 3201, 1062, 1092, 3261, 3259, 1091
 881, 3203, 3204, 3202, 3201, 3261, 3262, 3260, 3259
 882, 3204, 1916, 1917, 3202, 3262, 1945, 1946, 3260
 883, 1064, 3205, 3203, 1063, 1093, 3263, 3261, 1092
 884, 3205, 3206, 3204, 3203, 3263, 3264, 3262, 3261
 885, 3206, 1915, 1916, 3204, 3264, 1944, 1945, 3262
 886, 1065, 3207, 3205, 1064, 1094, 3265, 3263, 1093
 887, 3207, 3208, 3206, 3205, 3265, 3266, 3264, 3263
 888, 3208, 1914, 1915, 3206, 3266, 1943, 1944, 3264
 889, 1066, 3209, 3207, 1065, 1095, 3267, 3265, 1094
 890, 3209, 3210, 3208, 3207, 3267, 3268, 3266, 3265
 891, 3210, 1913, 1914, 3208, 3268, 1942, 1943, 3266
 892, 1067, 3211, 3209, 1066, 1096, 3269, 3267, 1095
 893, 3211, 3212, 3210, 3209, 3269, 3270, 3268, 3267
 894, 3212, 1912, 1913, 3210, 3270, 1941, 1942, 3268
 895, 1068, 3213, 3211, 1067, 1097, 3271, 3269, 1096
 896, 3213, 3214, 3212, 3211, 3271, 3272, 3270, 3269
 897, 3214, 1911, 1912, 3212, 3272, 1940, 1941, 3270
 898, 1069, 3215, 3213, 1068, 1098, 3273, 3271, 1097
 899, 3215, 3216, 3214, 3213, 3273, 3274, 3272, 3271
 900, 3216, 1910, 1911, 3214, 3274, 1939, 1940, 3272
 901, 1070, 3217, 3215, 1069, 1099, 3275, 3273, 1098
 902, 3217, 3218, 3216, 3215, 3275, 3276, 3274, 3273
 903, 3218, 1909, 1910, 3216, 3276, 1938, 1939, 3274
 904, 1071, 3219, 3217, 1070, 1100, 3277, 3275, 1099
 905, 3219, 3220, 3218, 3217, 3277, 3278, 3276, 3275
 906, 3220, 1908, 1909, 3218, 3278, 1937, 1938, 3276
 907, 1072, 3221, 3219, 1071, 1101, 3279, 3277, 1100
 908, 3221, 3222, 3220, 3219, 3279, 3280, 3278, 3277
 909, 3222, 1907, 1908, 3220, 3280, 1936, 1937, 3278
 910, 1073, 3223, 3221, 1072, 1102, 3281, 3279, 1101
 911, 3223, 3224, 3222, 3221, 3281, 3282, 3280, 3279
 912, 3224, 1906, 1907, 3222, 3282, 1935, 1936, 3280
 913, 1074, 3225, 3223, 1073, 1103, 3283, 3281, 1102
 914, 3225, 3226, 3224, 3223, 3283, 3284, 3282, 3281
 915, 3226, 1905, 1906, 3224, 3284, 1934, 1935, 3282
 916, 1075, 3227, 3225, 1074, 1104, 3285, 3283, 1103
 917, 3227, 3228, 3226, 3225, 3285, 3286, 3284, 3283
 918, 3228, 1904, 1905, 3226, 3286, 1933, 1934, 3284
 919, 1076, 3229, 3227, 1075, 1105, 3287, 3285, 1104
 920, 3229, 3230, 3228, 3227, 3287, 3288, 3286, 3285
 921, 3230, 1903, 1904, 3228, 3288, 1932, 1933, 3286
 922, 1077, 3231, 3229, 1076, 1106, 3289, 3287, 1105
 923, 3231, 3232, 3230, 3229, 3289, 3290, 3288, 3287
 924, 3232, 1902, 1903, 3230, 3290, 1931, 1932, 3288
 925, 1078, 3233, 3231, 1077, 1107, 3291, 3289, 1106
 926, 3233, 3234, 3232, 3231, 3291, 3292, 3290, 3289
 927, 3234, 1901, 1902, 3232, 3292, 1930, 1931, 3290
 928, 1079, 3235, 3233, 1078, 1108, 3293, 3291, 1107
 929, 3235, 3236, 3234, 3233, 3293, 3294, 3292, 3291
 930, 3236, 1900, 1901, 3234, 3294, 1929, 1930, 3292
 931, 1080, 3237, 3235, 1079, 1109, 3295, 3293, 1108
 932, 3237, 3238, 3236, 3235, 3295, 3296, 3294, 3293
 933, 3238, 1899, 1900, 3236, 3296, 1928, 1929, 3294
 934, 1081, 3239, 3237, 1080, 1110, 3297, 3295, 1109
 935, 3239, 3240, 3238, 3237, 3297, 3298, 3296, 3295
 936, 3240, 1898, 1899, 3238, 3298, 1927, 1928, 3296
 937, 1082, 3241, 3239, 1081, 1111, 3299, 3297, 1110
 938, 3241, 3242, 3240, 3239, 3299, 3300, 3298, 3297
 939, 3242, 1897, 1898, 3240, 3300, 1926, 1927, 3298
 940, 1083, 3243, 3241, 1082, 1112, 3301, 3299, 1111
 941, 3243, 3244, 3242, 3241, 3301, 3302, 3300, 3299
 942, 3244, 1896, 1897, 3242, 3302, 1925, 1926, 3300
 943,  252,  997, 3243, 1083,  251,  999, 3301, 1112
 944,  997,  998, 3244, 3243,  999, 1000, 3302, 3301
 945,  998,  195, 1896, 3244, 1000,  196, 1925, 3302
 946, 1084, 3245,  594,  103, 1113, 3303,  593,  102
 947, 3245, 3246,  565,  594, 3303, 3304,  564,  593
 948, 3246, 1953,   53,  565, 3304, 1982,   52,  564
 949, 1085, 3247, 3245, 1084, 1114, 3305, 3303, 1113
 950, 3247, 3248, 3246, 3245, 3305, 3306, 3304, 3303
 951, 3248, 1952, 1953, 3246, 3306, 1981, 1982, 3304
 952, 1086, 3249, 3247, 1085, 1115, 3307, 3305, 1114
 953, 3249, 3250, 3248, 3247, 3307, 3308, 3306, 3305
 954, 3250, 1951, 1952, 3248, 3308, 1980, 1981, 3306
 955, 1087, 3251, 3249, 1086, 1116, 3309, 3307, 1115
 956, 3251, 3252, 3250, 3249, 3309, 3310, 3308, 3307
 957, 3252, 1950, 1951, 3250, 3310, 1979, 1980, 3308
 958, 1088, 3253, 3251, 1087, 1117, 3311, 3309, 1116
 959, 3253, 3254, 3252, 3251, 3311, 3312, 3310, 3309
 960, 3254, 1949, 1950, 3252, 3312, 1978, 1979, 3310
 961, 1089, 3255, 3253, 1088, 1118, 3313, 3311, 1117
 962, 3255, 3256, 3254, 3253, 3313, 3314, 3312, 3311
 963, 3256, 1948, 1949, 3254, 3314, 1977, 1978, 3312
 964, 1090, 3257, 3255, 1089, 1119, 3315, 3313, 1118
 965, 3257, 3258, 3256, 3255, 3315, 3316, 3314, 3313
 966, 3258, 1947, 1948, 3256, 3316, 1976, 1977, 3314
 967, 1091, 3259, 3257, 1090, 1120, 3317, 3315, 1119
 968, 3259, 3260, 3258, 3257, 3317, 3318, 3316, 3315
 969, 3260, 1946, 1947, 3258, 3318, 1975, 1976, 3316
 970, 1092, 3261, 3259, 1091, 1121, 3319, 3317, 1120
 971, 3261, 3262, 3260, 3259, 3319, 3320, 3318, 3317
 972, 3262, 1945, 1946, 3260, 3320, 1974, 1975, 3318
 973, 1093, 3263, 3261, 1092, 1122, 3321, 3319, 1121
 974, 3263, 3264, 3262, 3261, 3321, 3322, 3320, 3319
 975, 3264, 1944, 1945, 3262, 3322, 1973, 1974, 3320
 976, 1094, 3265, 3263, 1093, 1123, 3323, 3321, 1122
 977, 3265, 3266, 3264, 3263, 3323, 3324, 3322, 3321
 978, 3266, 1943, 1944, 3264, 3324, 1972, 1973, 3322
 979, 1095, 3267, 3265, 1094, 1124, 3325, 3323, 1123
 980, 3267, 3268, 3266, 3265, 3325, 3326, 3324, 3323
 981, 3268, 1942, 1943, 3266, 3326, 1971, 1972, 3324
 982, 1096, 3269, 3267, 1095, 1125, 3327, 3325, 1124
 983, 3269, 3270, 3268, 3267, 3327, 3328, 3326, 3325
 984, 3270, 1941, 1942, 3268, 3328, 1970, 1971, 3326
 985, 1097, 3271, 3269, 1096, 1126, 3329, 3327, 1125
 986, 3271, 3272, 3270, 3269, 3329, 3330, 3328, 3327
 987, 3272, 1940, 1941, 3270, 3330, 1969, 1970, 3328
 988, 1098, 3273, 3271, 1097, 1127, 3331, 3329, 1126
 989, 3273, 3274, 3272, 3271, 3331, 3332, 3330, 3329
 990, 3274, 1939, 1940, 3272, 3332, 1968, 1969, 3330
 991, 1099, 3275, 3273, 1098, 1128, 3333, 3331, 1127
 992, 3275, 3276, 3274, 3273, 3333, 3334, 3332, 3331
 993, 3276, 1938, 1939, 3274, 3334, 1967, 1968, 3332
 994, 1100, 3277, 3275, 1099, 1129, 3335, 3333, 1128
 995, 3277, 3278, 3276, 3275, 3335, 3336, 3334, 3333
 996, 3278, 1937, 1938, 3276, 3336, 1966, 1967, 3334
 997, 1101, 3279, 3277, 1100, 1130, 3337, 3335, 1129
 998, 3279, 3280, 3278, 3277, 3337, 3338, 3336, 3335
 999, 3280, 1936, 1937, 3278, 3338, 1965, 1966, 3336
1000, 1102, 3281, 3279, 1101, 1131, 3339, 3337, 1130
1001, 3281, 3282, 3280, 3279, 3339, 3340, 3338, 3337
1002, 3282, 1935, 1936, 3280, 3340, 1964, 1965, 3338
1003, 1103, 3283, 3281, 1102, 1132, 3341, 3339, 1131
1004, 3283, 3284, 3282, 3281, 3341, 3342, 3340, 3339
1005, 3284, 1934, 1935, 3282, 3342, 1963, 1964, 3340
1006, 1104, 3285, 3283, 1103, 1133, 3343, 3341, 1132
1007, 3285, 3286, 3284, 3283, 3343, 3344, 3342, 3341
1008, 3286, 1933, 1934, 3284, 3344, 1962, 1963, 3342
1009, 1105, 3287, 3285, 1104, 1134, 3345, 3343, 1133
1010, 3287, 3288, 3286, 3285, 3345, 3346, 3344, 3343
1011, 3288, 1932, 1933, 3286, 3346, 1961, 1962, 3344
1012, 1106, 3289, 3287, 1105, 1135, 3347, 3345, 1134
1013, 3289, 3290, 3288, 3287, 3347, 3348, 3346, 3345
1014, 3290, 1931, 1932, 3288, 3348, 1960, 1961, 3346
1015, 1107, 3291, 3289, 1106, 1136, 3349, 3347, 1135
1016, 3291, 3292, 3290, 3289, 3349, 3350, 3348, 3347
1017, 3292, 1930, 1931, 3290, 3350, 1959, 1960, 3348
1018, 1108, 3293, 3291, 1107, 1137, 3351, 3349, 1136
1019, 3293, 3294, 3292, 3291, 3351, 3352, 3350, 3349
1020, 3294, 1929, 1930, 3292, 3352, 1958, 1959, 3350
1021, 1109, 3295, 3293, 1108, 1138, 3353, 3351, 1137
1022, 3295, 3296, 3294, 3293, 3353, 3354, 3352, 3351
1023, 3296, 1928, 1929, 3294, 3354, 1957, 1958, 3352
1024, 1110, 3297, 3295, 1109, 1139, 3355, 3353, 1138
1025, 3297, 3298, 3296, 3295, 3355, 3356, 3354, 3353
1026, 3298, 1927, 1928, 3296, 3356, 1956, 1957, 3354
1027, 1111, 3299, 3297, 1110, 1140, 3357, 3355, 1139
1028, 3299, 3300, 3298, 3297, 3357, 3358, 3356, 3355
1029, 3300, 1926, 1927, 3298, 3358, 1955, 1956, 3356
1030, 1112, 3301, 3299, 1111, 1141, 3359, 3357, 1140
1031, 3301, 3302, 3300, 3299, 3359, 3360, 3358, 3357
1032, 3302, 1925, 1926, 3300, 3360, 1954, 1955, 3358
1033,  251,  999, 3301, 1112,  250, 1001, 3359, 1141
1034,  999, 1000, 3302, 3301, 1001, 1002, 3360, 3359
1035, 1000,  196, 1925, 3302, 1002,  197, 1954, 3360
1036, 1113, 3303,  593,  102, 1142, 3361,  592,  101
1037, 3303, 3304,  564,  593, 3361, 3362,  563,  592
1038, 3304, 1982,   52,  564, 3362, 2011,   51,  563
1039, 1114, 3305, 3303, 1113, 1143, 3363, 3361, 1142
1040, 3305, 3306, 3304, 3303, 3363, 3364, 3362, 3361
1041, 3306, 1981, 1982, 3304, 3364, 2010, 2011, 3362
1042, 1115, 3307, 3305, 1114, 1144, 3365, 3363, 1143
1043, 3307, 3308, 3306, 3305, 3365, 3366, 3364, 3363
1044, 3308, 1980, 1981, 3306, 3366, 2009, 2010, 3364
1045, 1116, 3309, 3307, 1115, 1145, 3367, 3365, 1144
1046, 3309, 3310, 3308, 3307, 3367, 3368, 3366, 3365
1047, 3310, 1979, 1980, 3308, 3368, 2008, 2009, 3366
1048, 1117, 3311, 3309, 1116, 1146, 3369, 3367, 1145
1049, 3311, 3312, 3310, 3309, 3369, 3370, 3368, 3367
1050, 3312, 1978, 1979, 3310, 3370, 2007, 2008, 3368
1051, 1118, 3313, 3311, 1117, 1147, 3371, 3369, 1146
1052, 3313, 3314, 3312, 3311, 3371, 3372, 3370, 3369
1053, 3314, 1977, 1978, 3312, 3372, 2006, 2007, 3370
1054, 1119, 3315, 3313, 1118, 1148, 3373, 3371, 1147
1055, 3315, 3316, 3314, 3313, 3373, 3374, 3372, 3371
1056, 3316, 1976, 1977, 3314, 3374, 2005, 2006, 3372
1057, 1120, 3317, 3315, 1119, 1149, 3375, 3373, 1148
1058, 3317, 3318, 3316, 3315, 3375, 3376, 3374, 3373
1059, 3318, 1975, 1976, 3316, 3376, 2004, 2005, 3374
1060, 1121, 3319, 3317, 1120, 1150, 3377, 3375, 1149
1061, 3319, 3320, 3318, 3317, 3377, 3378, 3376, 3375
1062, 3320, 1974, 1975, 3318, 3378, 2003, 2004, 3376
1063, 1122, 3321, 3319, 1121, 1151, 3379, 3377, 1150
1064, 3321, 3322, 3320, 3319, 3379, 3380, 3378, 3377
1065, 3322, 1973, 1974, 3320, 3380, 2002, 2003, 3378
1066, 1123, 3323, 3321, 1122, 1152, 3381, 3379, 1151
1067, 3323, 3324, 3322, 3321, 3381, 3382, 3380, 3379
1068, 3324, 1972, 1973, 3322, 3382, 2001, 2002, 3380
1069, 1124, 3325, 3323, 1123, 1153, 3383, 3381, 1152
1070, 3325, 3326, 3324, 3323, 3383, 3384, 3382, 3381
1071, 3326, 1971, 1972, 3324, 3384, 2000, 2001, 3382
1072, 1125, 3327, 3325, 1124, 1154, 3385, 3383, 1153
1073, 3327, 3328, 3326, 3325, 3385, 3386, 3384, 3383
1074, 3328, 1970, 1971, 3326, 3386, 1999, 2000, 3384
1075, 1126, 3329, 3327, 1125, 1155, 3387, 3385, 1154
1076, 3329, 3330, 3328, 3327, 3387, 3388, 3386, 3385
1077, 3330, 1969, 1970, 3328, 3388, 1998, 1999, 3386
1078, 1127, 3331, 3329, 1126, 1156, 3389, 3387, 1155
1079, 3331, 3332, 3330, 3329, 3389, 3390, 3388, 3387
1080, 3332, 1968, 1969, 3330, 3390, 1997, 1998, 3388
1081, 1128, 3333, 3331, 1127, 1157, 3391, 3389, 1156
1082, 3333, 3334, 3332, 3331, 3391, 3392, 3390, 3389
1083, 3334, 1967, 1968, 3332, 3392, 1996, 1997, 3390
1084, 1129, 3335, 3333, 1128, 1158, 3393, 3391, 1157
1085, 3335, 3336, 3334, 3333, 3393, 3394, 3392, 3391
1086, 3336, 1966, 1967, 3334, 3394, 1995, 1996, 3392
1087, 1130, 3337, 3335, 1129, 1159, 3395, 3393, 1158
1088, 3337, 3338, 3336, 3335, 3395, 3396, 3394, 3393
1089, 3338, 1965, 1966, 3336, 3396, 1994, 1995, 3394
1090, 1131, 3339, 3337, 1130, 1160, 3397, 3395, 1159
1091, 3339, 3340, 3338, 3337, 3397, 3398, 3396, 3395
1092, 3340, 1964, 1965, 3338, 3398, 1993, 1994, 3396
1093, 1132, 3341, 3339, 1131, 1161, 3399, 3397, 1160
1094, 3341, 3342, 3340, 3339, 3399, 3400, 3398, 3397
1095, 3342, 1963, 1964, 3340, 3400, 1992, 1993, 3398
1096, 1133, 3343, 3341, 1132, 1162, 3401, 3399, 1161
1097, 3343, 3344, 3342, 3341, 3401, 3402, 3400, 3399
1098, 3344, 1962, 1963, 3342, 3402, 1991, 1992, 3400
1099, 1134, 3345, 3343, 1133, 1163, 3403, 3401, 1162
1100, 3345, 3346, 3344, 3343, 3403, 3404, 3402, 3401
1101, 3346, 1961, 1962, 3344, 3404, 1990, 1991, 3402
1102, 1135, 3347, 3345, 1134, 1164, 3405, 3403, 1163
1103, 3347, 3348, 3346, 3345, 3405, 3406, 3404, 3403
1104, 3348, 1960, 1961, 3346, 3406, 1989, 1990, 3404
1105, 1136, 3349, 3347, 1135, 1165, 3407, 3405, 1164
1106, 3349, 3350, 3348, 3347, 3407, 3408, 3406, 3405
1107, 3350, 1959, 1960, 3348, 3408, 1988, 1989, 3406
1108, 1137, 3351, 3349, 1136, 1166, 3409, 3407, 1165
1109, 3351, 3352, 3350, 3349, 3409, 3410, 3408, 3407
1110, 3352, 1958, 1959, 3350, 3410, 1987, 1988, 3408
1111, 1138, 3353, 3351, 1137, 1167, 3411, 3409, 1166
1112, 3353, 3354, 3352, 3351, 3411, 3412, 3410, 3409
1113, 3354, 1957, 1958, 3352, 3412, 1986, 1987, 3410
1114, 1139, 3355, 3353, 1138, 1168, 3413, 3411, 1167
1115, 3355, 3356, 3354, 3353, 3413, 3414, 3412, 3411
1116, 3356, 1956, 1957, 3354, 3414, 1985, 1986, 3412
1117, 1140, 3357, 3355, 1139, 1169, 3415, 3413, 1168
1118, 3357, 3358, 3356, 3355, 3415, 3416, 3414, 3413
1119, 3358, 1955, 1956, 3356, 3416, 1984, 1985, 3414
1120, 1141, 3359, 3357, 1140, 1170, 3417, 3415, 1169
1121, 3359, 3360, 3358, 3357, 3417, 3418, 3416, 3415
1122, 3360, 1954, 1955, 3358, 3418, 1983, 1984, 3416
1123,  250, 1001, 3359, 1141,  249, 1003, 3417, 1170
1124, 1001, 1002, 3360, 3359, 1003, 1004, 3418, 3417
1125, 1002,  197, 1954, 3360, 1004,  198, 1983, 3418
1126, 1142, 3361,  592,  101, 1171, 3419,  591,  100
1127, 3361, 3362,  563,  592, 3419, 3420,  562,  591
1128, 3362, 2011,   51,  563, 3420, 2040,   50,  562
1129, 1143, 3363, 3361, 1142, 1172, 3421, 3419, 1171
1130, 3363, 3364, 3362, 3361, 3421, 3422, 3420, 3419
1131, 3364, 2010, 2011, 3362, 3422, 2039, 2040, 3420
1132, 1144, 3365, 3363, 1143, 1173, 3423, 3421, 1172
1133, 3365, 3366, 3364, 3363, 3423, 3424, 3422, 3421
1134, 3366, 2009, 2010, 3364, 3424, 2038, 2039, 3422
1135, 1145, 3367, 3365, 1144, 1174, 3425, 3423, 1173
1136, 3367, 3368, 3366, 3365, 3425, 3426, 3424, 3423
1137, 3368, 2008, 2009, 3366, 3426, 2037, 2038, 3424
1138, 1146, 3369, 3367, 1145, 1175, 3427, 3425, 1174
1139, 3369, 3370, 3368, 3367, 3427, 3428, 3426, 3425
1140, 3370, 2007, 2008, 3368, 3428, 2036, 2037, 3426
1141, 1147, 3371, 3369, 1146, 1176, 3429, 3427, 1175
1142, 3371, 3372, 3370, 3369, 3429, 3430, 3428, 3427
1143, 3372, 2006, 2007, 3370, 3430, 2035, 2036, 3428
1144, 1148, 3373, 3371, 1147, 1177, 3431, 3429, 1176
1145, 3373, 3374, 3372, 3371, 3431, 3432, 3430, 3429
1146, 3374, 2005, 2006, 3372, 3432, 2034, 2035, 3430
1147, 1149, 3375, 3373, 1148, 1178, 3433, 3431, 1177
1148, 3375, 3376, 3374, 3373, 3433, 3434, 3432, 3431
1149, 3376, 2004, 2005, 3374, 3434, 2033, 2034, 3432
1150, 1150, 3377, 3375, 1149, 1179, 3435, 3433, 1178
1151, 3377, 3378, 3376, 3375, 3435, 3436, 3434, 3433
1152, 3378, 2003, 2004, 3376, 3436, 2032, 2033, 3434
1153, 1151, 3379, 3377, 1150, 1180, 3437, 3435, 1179
1154, 3379, 3380, 3378, 3377, 3437, 3438, 3436, 3435
1155, 3380, 2002, 2003, 3378, 3438, 2031, 2032, 3436
1156, 1152, 3381, 3379, 1151, 1181, 3439, 3437, 1180
1157, 3381, 3382, 3380, 3379, 3439, 3440, 3438, 3437
1158, 3382, 2001, 2002, 3380, 3440, 2030, 2031, 3438
1159, 1153, 3383, 3381, 1152, 1182, 3441, 3439, 1181
1160, 3383, 3384, 3382, 3381, 3441, 3442, 3440, 3439
1161, 3384, 2000, 2001, 3382, 3442, 2029, 2030, 3440
1162, 1154, 3385, 3383, 1153, 1183, 3443, 3441, 1182
1163, 3385, 3386, 3384, 3383, 3443, 3444, 3442, 3441
1164, 3386, 1999, 2000, 3384, 3444, 2028, 2029, 3442
1165, 1155, 3387, 3385, 1154, 1184, 3445, 3443, 1183
1166, 3387, 3388, 3386, 3385, 3445, 3446, 3444, 3443
1167, 3388, 1998, 1999, 3386, 3446, 2027, 2028, 3444
1168, 1156, 3389, 3387, 1155, 1185, 3447, 3445, 1184
1169, 3389, 3390, 3388, 3387, 3447, 3448, 3446, 3445
1170, 3390, 1997, 1998, 3388, 3448, 2026, 2027, 3446
1171, 1157, 3391, 3389, 1156, 1186, 3449, 3447, 1185
1172, 3391, 3392, 3390, 3389, 3449, 3450, 3448, 3447
1173, 3392, 1996, 1997, 3390, 3450, 2025, 2026, 3448
1174, 1158, 3393, 3391, 1157, 1187, 3451, 3449, 1186
1175, 3393, 3394, 3392, 3391, 3451, 3452, 3450, 3449
1176, 3394, 1995, 1996, 3392, 3452, 2024, 2025, 3450
1177, 1159, 3395, 3393, 1158, 1188, 3453, 3451, 1187
1178, 3395, 3396, 3394, 3393, 3453, 3454, 3452, 3451
1179, 3396, 1994, 1995, 3394, 3454, 2023, 2024, 3452
1180, 1160, 3397, 3395, 1159, 1189, 3455, 3453, 1188
1181, 3397, 3398, 3396, 3395, 3455, 3456, 3454, 3453
1182, 3398, 1993, 1994, 3396, 3456, 2022, 2023, 3454
1183, 1161, 3399, 3397, 1160, 1190, 3457, 3455, 1189
1184, 3399, 3400, 3398, 3397, 3457, 3458, 3456, 3455
1185, 3400, 1992, 1993, 3398, 3458, 2021, 2022, 3456
1186, 1162, 3401, 3399, 1161, 1191, 3459, 3457, 1190
1187, 3401, 3402, 3400, 3399, 3459, 3460, 3458, 3457
1188, 3402, 1991, 1992, 3400, 3460, 2020, 2021, 3458
1189, 1163, 3403, 3401, 1162, 1192, 3461, 3459, 1191
1190, 3403, 3404, 3402, 3401, 3461, 3462, 3460, 3459
1191, 3404, 1990, 1991, 3402, 3462, 2019, 2020, 3460
1192, 1164, 3405, 3403, 1163, 1193, 3463, 3461, 1192
1193, 3405, 3406, 3404, 3403, 3463, 3464, 3462, 3461
1194, 3406, 1989, 1990, 3404, 3464, 2018, 2019, 3462
1195, 1165, 3407, 3405, 1164, 1194, 3465, 3463, 1193
1196, 3407, 3408, 3406, 3405, 3465, 3466, 3464, 3463
1197, 3408, 1988, 1989, 3406, 3466, 2017, 2018, 3464
1198, 1166, 3409, 3407, 1165, 1195, 3467, 3465, 1194
1199, 3409, 3410, 3408, 3407, 3467, 3468, 3466, 3465
1200, 3410, 1987, 1988, 3408, 3468, 2016, 2017, 3466
1201, 1167, 3411, 3409, 1166, 1196, 3469, 3467, 1195
1202, 3411, 3412, 3410, 3409, 3469, 3470, 3468, 3467
1203, 3412, 1986, 1987, 3410, 3470, 2015, 2016, 3468
1204, 1168, 3413, 3411, 1167, 1197, 3471, 3469, 1196
1205, 3413, 3414, 3412, 3411, 3471, 3472, 3470, 3469
1206, 3414, 1985, 1986, 3412, 3472, 2014, 2015, 3470
1207, 1169, 3415, 3413, 1168, 1198, 3473, 3471, 1197
1208, 3415, 3416, 3414, 3413, 3473, 3474, 3472, 3471
1209, 3416, 1984, 1985, 3414, 3474, 2013, 2014, 3472
1210, 1170, 3417, 3415, 1169, 1199, 3475, 3473, 1198
1211, 3417, 3418, 3416, 3415, 3475, 3476, 3474, 3473
1212, 3418, 1983, 1984, 3416, 3476, 2012, 2013, 3474
1213,  249, 1003, 3417, 1170,  248, 1005, 3475, 1199
1214, 1003, 1004, 3418, 3417, 1005, 1006, 3476, 3475
1215, 1004,  198, 1983, 3418, 1006,  199, 2012, 3476
1216, 1171, 3419,  591,  100, 1200, 3477,  590,   99
1217, 3419, 3420,  562,  591, 3477, 3478,  561,  590
1218, 3420, 2040,   50,  562, 3478, 2069,   49,  561
1219, 1172, 3421, 3419, 1171, 1201, 3479, 3477, 1200
1220, 3421, 3422, 3420, 3419, 3479, 3480, 3478, 3477
1221, 3422, 2039, 2040, 3420, 3480, 2068, 2069, 3478
1222, 1173, 3423, 3421, 1172, 1202, 3481, 3479, 1201
1223, 3423, 3424, 3422, 3421, 3481, 3482, 3480, 3479
1224, 3424, 2038, 2039, 3422, 3482, 2067, 2068, 3480
1225, 1174, 3425, 3423, 1173, 1203, 3483, 3481, 1202
1226, 3425, 3426, 3424, 3423, 3483, 3484, 3482, 3481
1227, 3426, 2037, 2038, 3424, 3484, 2066, 2067, 3482
1228, 1175, 3427, 3425, 1174, 1204, 3485, 3483, 1203
1229, 3427, 3428, 3426, 3425, 3485, 3486, 3484, 3483
1230, 3428, 2036, 2037, 3426, 3486, 2065, 2066, 3484
1231, 1176, 3429, 3427, 1175, 1205, 3487, 3485, 1204
1232, 3429, 3430, 3428, 3427, 3487, 3488, 3486, 3485
1233, 3430, 2035, 2036, 3428, 3488, 2064, 2065, 3486
1234, 1177, 3431, 3429, 1176, 1206, 3489, 3487, 1205
1235, 3431, 3432, 3430, 3429, 3489, 3490, 3488, 3487
1236, 3432, 2034, 2035, 3430, 3490, 2063, 2064, 3488
1237, 1178, 3433, 3431, 1177, 1207, 3491, 3489, 1206
1238, 3433, 3434, 3432, 3431, 3491, 3492, 3490, 3489
1239, 3434, 2033, 2034, 3432, 3492, 2062, 2063, 3490
1240, 1179, 3435, 3433, 1178, 1208, 3493, 3491, 1207
1241, 3435, 3436, 3434, 3433, 3493, 3494, 3492, 3491
1242, 3436, 2032, 2033, 3434, 3494, 2061, 2062, 3492
1243, 1180, 3437, 3435, 1179, 1209, 3495, 3493, 1208
1244, 3437, 3438, 3436, 3435, 3495, 3496, 3494, 3493
1245, 3438, 2031, 2032, 3436, 3496, 2060, 2061, 3494
1246, 1181, 3439, 3437, 1180, 1210, 3497, 3495, 1209
1247, 3439, 3440, 3438, 3437, 3497, 3498, 3496, 3495
1248, 3440, 2030, 2031, 3438, 3498, 2059, 2060, 3496
1249, 1182, 3441, 3439, 1181, 1211, 3499, 3497, 1210
1250, 3441, 3442, 3440, 3439, 3499, 3500, 3498, 3497
1251, 3442, 2029, 2030, 3440, 3500, 2058, 2059, 3498
1252, 1183, 3443, 3441, 1182, 1212, 3501, 3499, 1211
1253, 3443, 3444, 3442, 3441, 3501, 3502, 3500, 3499
1254, 3444, 2028, 2029, 3442, 3502, 2057, 2058, 3500
1255, 1184, 3445, 3443, 1183, 1213, 3503, 3501, 1212
1256, 3445, 3446, 3444, 3443, 3503, 3504, 3502, 3501
1257, 3446, 2027, 2028, 3444, 3504, 2056, 2057, 3502
1258, 1185, 3447, 3445, 1184, 1214, 3505, 3503, 1213
1259, 3447, 3448, 3446, 3445, 3505, 3506, 3504, 3503
1260, 3448, 2026, 2027, 3446, 3506, 2055, 2056, 3504
1261, 1186, 3449, 3447, 1185, 1215, 3507, 3505, 1214
1262, 3449, 3450, 3448, 3447, 3507, 3508, 3506, 3505
1263, 3450, 2025, 2026, 3448, 3508, 2054, 2055, 3506
1264, 1187, 3451, 3449, 1186, 1216, 3509, 3507, 1215
1265, 3451, 3452, 3450, 3449, 3509, 3510, 3508, 3507
1266, 3452, 2024, 2025, 3450, 3510, 2053, 2054, 3508
1267, 1188, 3453, 3451, 1187, 1217, 3511, 3509, 1216
1268, 3453, 3454, 3452, 3451, 3511, 3512, 3510, 3509
1269, 3454, 2023, 2024, 3452, 3512, 2052, 2053, 3510
1270, 1189, 3455, 3453, 1188, 1218, 3513, 3511, 1217
1271, 3455, 3456, 3454, 3453, 3513, 3514, 3512, 3511
1272, 3456, 2022, 2023, 3454, 3514, 2051, 2052, 3512
1273, 1190, 3457, 3455, 1189, 1219, 3515, 3513, 1218
1274, 3457, 3458, 3456, 3455, 3515, 3516, 3514, 3513
1275, 3458, 2021, 2022, 3456, 3516, 2050, 2051, 3514
1276, 1191, 3459, 3457, 1190, 1220, 3517, 3515, 1219
1277, 3459, 3460, 3458, 3457, 3517, 3518, 3516, 3515
1278, 3460, 2020, 2021, 3458, 3518, 2049, 2050, 3516
1279, 1192, 3461, 3459, 1191, 1221, 3519, 3517, 1220
1280, 3461, 3462, 3460, 3459, 3519, 3520, 3518, 3517
1281, 3462, 2019, 2020, 3460, 3520, 2048, 2049, 3518
1282, 1193, 3463, 3461, 1192, 1222, 3521, 3519, 1221
1283, 3463, 3464, 3462, 3461, 3521, 3522, 3520, 3519
1284, 3464, 2018, 2019, 3462, 3522, 2047, 2048, 3520
1285, 1194, 3465, 3463, 1193, 1223, 3523, 3521, 1222
1286, 3465, 3466, 3464, 3463, 3523, 3524, 3522, 3521
1287, 3466, 2017, 2018, 3464, 3524, 2046, 2047, 3522
1288, 1195, 3467, 3465, 1194, 1224, 3525, 3523, 1223
1289, 3467, 3468, 3466, 3465, 3525, 3526, 3524, 3523
1290, 3468, 2016, 2017, 3466, 3526, 2045, 2046, 3524
1291, 1196, 3469, 3467, 1195, 1225, 3527, 3525, 1224
1292, 3469, 3470, 3468, 3467, 3527, 3528, 3526, 3525
1293, 3470, 2015, 2016, 3468, 3528, 2044, 2045, 3526
1294, 1197, 3471, 3469, 1196, 1226, 3529, 3527, 1225
1295, 3471, 3472, 3470, 3469, 3529, 3530, 3528, 3527
1296, 3472, 2014, 2015, 3470, 3530, 2043, 2044, 3528
1297, 1198, 3473, 3471, 1197, 1227, 3531, 3529, 1226
1298, 3473, 3474, 3472, 3471, 3531, 3532, 3530, 3529
1299, 3474, 2013, 2014, 3472, 3532, 2042, 2043, 3530
1300, 1199, 3475, 3473, 1198, 1228, 3533, 3531, 1227
1301, 3475, 3476, 3474, 3473, 3533, 3534, 3532, 3531
1302, 3476, 2012, 2013, 3474, 3534, 2041, 2042, 3532
1303,  248, 1005, 3475, 1199,  247, 1007, 3533, 1228
1304, 1005, 1006, 3476, 3475, 1007, 1008, 3534, 3533
1305, 1006,  199, 2012, 3476, 1008,  200, 2041, 3534
1306, 1200, 3477,  590,   99, 1229, 3535,  589,   98
1307, 3477, 3478,  561,  590, 3535, 3536,  560,  589
1308, 3478, 2069,   49,  561, 3536, 2098,   48,  560
1309, 1201, 3479, 3477, 1200, 1230, 3537, 3535, 1229
1310, 3479, 3480, 3478, 3477, 3537, 3538, 3536, 3535
1311, 3480, 2068, 2069, 3478, 3538, 2097, 2098, 3536
1312, 1202, 3481, 3479, 1201, 1231, 3539, 3537, 1230
1313, 3481, 3482, 3480, 3479, 3539, 3540, 3538, 3537
1314, 3482, 2067, 2068, 3480, 3540, 2096, 2097, 3538
1315, 1203, 3483, 3481, 1202, 1232, 3541, 3539, 1231
1316, 3483, 3484, 3482, 3481, 3541, 3542, 3540, 3539
1317, 3484, 2066, 2067, 3482, 3542, 2095, 2096, 3540
1318, 1204, 3485, 3483, 1203, 1233, 3543, 3541, 1232
1319, 3485, 3486, 3484, 3483, 3543, 3544, 3542, 3541
1320, 3486, 2065, 2066, 3484, 3544, 2094, 2095, 3542
1321, 1205, 3487, 3485, 1204, 1234, 3545, 3543, 1233
1322, 3487, 3488, 3486, 3485, 3545, 3546, 3544, 3543
1323, 3488, 2064, 2065, 3486, 3546, 2093, 2094, 3544
1324, 1206, 3489, 3487, 1205, 1235, 3547, 3545, 1234
1325, 3489, 3490, 3488, 3487, 3547, 3548, 3546, 3545
1326, 3490, 2063, 2064, 3488, 3548, 2092, 2093, 3546
1327, 1207, 3491, 3489, 1206, 1236, 3549, 3547, 1235
1328, 3491, 3492, 3490, 3489, 3549, 3550, 3548, 3547
1329, 3492, 2062, 2063, 3490, 3550, 2091, 2092, 3548
1330, 1208, 3493, 3491, 1207, 1237, 3551, 3549, 1236
1331, 3493, 3494, 3492, 3491, 3551, 3552, 3550, 3549
1332, 3494, 2061, 2062, 3492, 3552, 2090, 2091, 3550
1333, 1209, 3495, 3493, 1208, 1238, 3553, 3551, 1237
1334, 3495, 3496, 3494, 3493, 3553, 3554, 3552, 3551
1335, 3496, 2060, 2061, 3494, 3554, 2089, 2090, 3552
1336, 1210, 3497, 3495, 1209, 1239, 3555, 3553, 1238
1337, 3497, 3498, 3496, 3495, 3555, 3556, 3554, 3553
1338, 3498, 2059, 2060, 3496, 3556, 2088, 2089, 3554
1339, 1211, 3499, 3497, 1210, 1240, 3557, 3555, 1239
1340, 3499, 3500, 3498, 3497, 3557, 3558, 3556, 3555
1341, 3500, 2058, 2059, 3498, 3558, 2087, 2088, 3556
1342, 1212, 3501, 3499, 1211, 1241, 3559, 3557, 1240
1343, 3501, 3502, 3500, 3499, 3559, 3560, 3558, 3557
1344, 3502, 2057, 2058, 3500, 3560, 2086, 2087, 3558
1345, 1213, 3503, 3501, 1212, 1242, 3561, 3559, 1241
1346, 3503, 3504, 3502, 3501, 3561, 3562, 3560, 3559
1347, 3504, 2056, 2057, 3502, 3562, 2085, 2086, 3560
1348, 1214, 3505, 3503, 1213, 1243, 3563, 3561, 1242
1349, 3505, 3506, 3504, 3503, 3563, 3564, 3562, 3561
1350, 3506, 2055, 2056, 3504, 3564, 2084, 2085, 3562
1351, 1215, 3507, 3505, 1214, 1244, 3565, 3563, 1243
1352, 3507, 3508, 3506, 3505, 3565, 3566, 3564, 3563
1353, 3508, 2054, 2055, 3506, 3566, 2083, 2084, 3564
1354, 1216, 3509, 3507, 1215, 1245, 3567, 3565, 1244
1355, 3509, 3510, 3508, 3507, 3567, 3568, 3566, 3565
1356, 3510, 2053, 2054, 3508, 3568, 2082, 2083, 3566
1357, 1217, 3511, 3509, 1216, 1246, 3569, 3567, 1245
1358, 3511, 3512, 3510, 3509, 3569, 3570, 3568, 3567
1359, 3512, 2052, 2053, 3510, 3570, 2081, 2082, 3568
1360, 1218, 3513, 3511, 1217, 1247, 3571, 3569, 1246
1361, 3513, 3514, 3512, 3511, 3571, 3572, 3570, 3569
1362, 3514, 2051, 2052, 3512, 3572, 2080, 2081, 3570
1363, 1219, 3515, 3513, 1218, 1248, 3573, 3571, 1247
1364, 3515, 3516, 3514, 3513, 3573, 3574, 3572, 3571
1365, 3516, 2050, 2051, 3514, 3574, 2079, 2080, 3572
1366, 1220, 3517, 3515, 1219, 1249, 3575, 3573, 1248
1367, 3517, 3518, 3516, 3515, 3575, 3576, 3574, 3573
1368, 3518, 2049, 2050, 3516, 3576, 2078, 2079, 3574
1369, 1221, 3519, 3517, 1220, 1250, 3577, 3575, 1249
1370, 3519, 3520, 3518, 3517, 3577, 3578, 3576, 3575
1371, 3520, 2048, 2049, 3518, 3578, 2077, 2078, 3576
1372, 1222, 3521, 3519, 1221, 1251, 3579, 3577, 1250
1373, 3521, 3522, 3520, 3519, 3579, 3580, 3578, 3577
1374, 3522, 2047, 2048, 3520, 3580, 2076, 2077, 3578
1375, 1223, 3523, 3521, 1222, 1252, 3581, 3579, 1251
1376, 3523, 3524, 3522, 3521, 3581, 3582, 3580, 3579
1377, 3524, 2046, 2047, 3522, 3582, 2075, 2076, 3580
1378, 1224, 3525, 3523, 1223, 1253, 3583, 3581, 1252
1379, 3525, 3526, 3524, 3523, 3583, 3584, 3582, 3581
1380, 3526, 2045, 2046, 3524, 3584, 2074, 2075, 3582
1381, 1225, 3527, 3525, 1224, 1254, 3585, 3583, 1253
1382, 3527, 3528, 3526, 3525, 3585, 3586, 3584, 3583
1383, 3528, 2044, 2045, 3526, 3586, 2073, 2074, 3584
1384, 1226, 3529, 3527, 1225, 1255, 3587, 3585, 1254
1385, 3529, 3530, 3528, 3527, 3587, 3588, 3586, 3585
1386, 3530, 2043, 2044, 3528, 3588, 2072, 2073, 3586
1387, 1227, 3531, 3529, 1226, 1256, 3589, 3587, 1255
1388, 3531, 3532, 3530, 3529, 3589, 3590, 3588, 3587
1389, 3532, 2042, 2043, 3530, 3590, 2071, 2072, 3588
1390, 1228, 3533, 3531, 1227, 1257, 3591, 3589, 1256
1391, 3533, 3534, 3532, 3531, 3591, 3592, 3590, 3589
1392, 3534, 2041, 2042, 3532, 3592, 2070, 2071, 3590
1393,  247, 1007, 3533, 1228,  246, 1009, 3591, 1257
1394, 1007, 1008, 3534, 3533, 1009, 1010, 3592, 3591
1395, 1008,  200, 2041, 3534, 1010,  201, 2070, 3592
1396, 1229, 3535,  589,   98, 1258, 3593,  588,   97
1397, 3535, 3536,  560,  589, 3593, 3594,  559,  588
1398, 3536, 2098,   48,  560, 3594, 2127,   47,  559
1399, 1230, 3537, 3535, 1229, 1259, 3595, 3593, 1258
1400, 3537, 3538, 3536, 3535, 3595, 3596, 3594, 3593
1401, 3538, 2097, 2098, 3536, 3596, 2126, 2127, 3594
1402, 1231, 3539, 3537, 1230, 1260, 3597, 3595, 1259
1403, 3539, 3540, 3538, 3537, 3597, 3598, 3596, 3595
1404, 3540, 2096, 2097, 3538, 3598, 2125, 2126, 3596
1405, 1232, 3541, 3539, 1231, 1261, 3599, 3597, 1260
1406, 3541, 3542, 3540, 3539, 3599, 3600, 3598, 3597
1407, 3542, 2095, 2096, 3540, 3600, 2124, 2125, 3598
1408, 1233, 3543, 3541, 1232, 1262, 3601, 3599, 1261
1409, 3543, 3544, 3542, 3541, 3601, 3602, 3600, 3599
1410, 3544, 2094, 2095, 3542, 3602, 2123, 2124, 3600
1411, 1234, 3545, 3543, 1233, 1263, 3603, 3601, 1262
1412, 3545, 3546, 3544, 3543, 3603, 3604, 3602, 3601
1413, 3546, 2093, 2094, 3544, 3604, 2122, 2123, 3602
1414, 1235, 3547, 3545, 1234, 1264, 3605, 3603, 1263
1415, 3547, 3548, 3546, 3545, 3605, 3606, 3604, 3603
1416, 3548, 2092, 2093, 3546, 3606, 2121, 2122, 3604
1417, 1236, 3549, 3547, 1235, 1265, 3607, 3605, 1264
1418, 3549, 3550, 3548, 3547, 3607, 3608, 3606, 3605
1419, 3550, 2091, 2092, 3548, 3608, 2120, 2121, 3606
1420, 1237, 3551, 3549, 1236, 1266, 3609, 3607, 1265
1421, 3551, 3552, 3550, 3549, 3609, 3610, 3608, 3607
1422, 3552, 2090, 2091, 3550, 3610, 2119, 2120, 3608
1423, 1238, 3553, 3551, 1237, 1267, 3611, 3609, 1266
1424, 3553, 3554, 3552, 3551, 3611, 3612, 3610, 3609
1425, 3554, 2089, 2090, 3552, 3612, 2118, 2119, 3610
1426, 1239, 3555, 3553, 1238, 1268, 3613, 3611, 1267
1427, 3555, 3556, 3554, 3553, 3613, 3614, 3612, 3611
1428, 3556, 2088, 2089, 3554, 3614, 2117, 2118, 3612
1429, 1240, 3557, 3555, 1239, 1269, 3615, 3613, 1268
1430, 3557, 3558, 3556, 3555, 3615, 3616, 3614, 3613
1431, 3558, 2087, 2088, 3556, 3616, 2116, 2117, 3614
1432, 1241, 3559, 3557, 1240, 1270, 3617, 3615, 1269
1433, 3559, 3560, 3558, 3557, 3617, 3618, 3616, 3615
1434, 3560, 2086, 2087, 3558, 3618, 2115, 2116, 3616
1435, 1242, 3561, 3559, 1241, 1271, 3619, 3617, 1270
1436, 3561, 3562, 3560, 3559, 3619, 3620, 3618, 3617
1437, 3562, 2085, 2086, 3560, 3620, 2114, 2115, 3618
1438, 1243, 3563, 3561, 1242, 1272, 3621, 3619, 1271
1439, 3563, 3564, 3562, 3561, 3621, 3622, 3620, 3619
1440, 3564, 2084, 2085, 3562, 3622, 2113, 2114, 3620
1441, 1244, 3565, 3563, 1243, 1273, 3623, 3621, 1272
1442, 3565, 3566, 3564, 3563, 3623, 3624, 3622, 3621
1443, 3566, 2083, 2084, 3564, 3624, 2112, 2113, 3622
1444, 1245, 3567, 3565, 1244, 1274, 3625, 3623, 1273
1445, 3567, 3568, 3566, 3565, 3625, 3626, 3624, 3623
1446, 3568, 2082, 2083, 3566, 3626, 2111, 2112, 3624
1447, 1246, 3569, 3567, 1245, 1275, 3627, 3625, 1274
1448, 3569, 3570, 3568, 3567, 3627, 3628, 3626, 3625
1449, 3570, 2081, 2082, 3568, 3628, 2110, 2111, 3626
1450, 1247, 3571, 3569, 1246, 1276, 3629, 3627, 1275
1451, 3571, 3572, 3570, 3569, 3629, 3630, 3628, 3627
1452, 3572, 2080, 2081, 3570, 3630, 2109, 2110, 3628
1453, 1248, 3573, 3571, 1247, 1277, 3631, 3629, 1276
1454, 3573, 3574, 3572, 3571, 3631, 3632, 3630, 3629
1455, 3574, 2079, 2080, 3572, 3632, 2108, 2109, 3630
1456, 1249, 3575, 3573, 1248, 1278, 3633, 3631, 1277
1457, 3575, 3576, 3574, 3573, 3633, 3634, 3632, 3631
1458, 3576, 2078, 2079, 3574, 3634, 2107, 2108, 3632
1459, 1250, 3577, 3575, 1249, 1279, 3635, 3633, 1278
1460, 3577, 3578, 3576, 3575, 3635, 3636, 3634, 3633
1461, 3578, 2077, 2078, 3576, 3636, 2106, 2107, 3634
1462, 1251, 3579, 3577, 1250, 1280, 3637, 3635, 1279
1463, 3579, 3580, 3578, 3577, 3637, 3638, 3636, 3635
1464, 3580, 2076, 2077, 3578, 3638, 2105, 2106, 3636
1465, 1252, 3581, 3579, 1251, 1281, 3639, 3637, 1280
1466, 3581, 3582, 3580, 3579, 3639, 3640, 3638, 3637
1467, 3582, 2075, 2076, 3580, 3640, 2104, 2105, 3638
1468, 1253, 3583, 3581, 1252, 1282, 3641, 3639, 1281
1469, 3583, 3584, 3582, 3581, 3641, 3642, 3640, 3639
1470, 3584, 2074, 2075, 3582, 3642, 2103, 2104, 3640
1471, 1254, 3585, 3583, 1253, 1283, 3643, 3641, 1282
1472, 3585, 3586, 3584, 3583, 3643, 3644, 3642, 3641
1473, 3586, 2073, 2074, 3584, 3644, 2102, 2103, 3642
1474, 1255, 3587, 3585, 1254, 1284, 3645, 3643, 1283
1475, 3587, 3588, 3586, 3585, 3645, 3646, 3644, 3643
1476, 3588, 2072, 2073, 3586, 3646, 2101, 2102, 3644
1477, 1256, 3589, 3587, 1255, 1285, 3647, 3645, 1284
1478, 3589, 3590, 3588, 3587, 3647, 3648, 3646, 3645
1479, 3590, 2071, 2072, 3588, 3648, 2100, 2101, 3646
1480, 1257, 3591, 3589, 1256, 1286, 3649, 3647, 1285
1481, 3591, 3592, 3590, 3589, 3649, 3650, 3648, 3647
1482, 3592, 2070, 2071, 3590, 3650, 2099, 2100, 3648
1483,  246, 1009, 3591, 1257,  245, 1011, 3649, 1286
1484, 1009, 1010, 3592, 3591, 1011, 1012, 3650, 3649
1485, 1010,  201, 2070, 3592, 1012,  202, 2099, 3650
1486, 1258, 3593,  588,   97, 1287, 3651,  587,   96
1487, 3593, 3594,  559,  588, 3651, 3652,  558,  587
1488, 3594, 2127,   47,  559, 3652, 2156,   46,  558
1489, 1259, 3595, 3593, 1258, 1288, 3653, 3651, 1287
1490, 3595, 3596, 3594, 3593, 3653, 3654, 3652, 3651
1491, 3596, 2126, 2127, 3594, 3654, 2155, 2156, 3652
1492, 1260, 3597, 3595, 1259, 1289, 3655, 3653, 1288
1493, 3597, 3598, 3596, 3595, 3655, 3656, 3654, 3653
1494, 3598, 2125, 2126, 3596, 3656, 2154, 2155, 3654
1495, 1261, 3599, 3597, 1260, 1290, 3657, 3655, 1289
1496, 3599, 3600, 3598, 3597, 3657, 3658, 3656, 3655
1497, 3600, 2124, 2125, 3598, 3658, 2153, 2154, 3656
1498, 1262, 3601, 3599, 1261, 1291, 3659, 3657, 1290
1499, 3601, 3602, 3600, 3599, 3659, 3660, 3658, 3657
1500, 3602, 2123, 2124, 3600, 3660, 2152, 2153, 3658
1501, 1263, 3603, 3601, 1262, 1292, 3661, 3659, 1291
1502, 3603, 3604, 3602, 3601, 3661, 3662, 3660, 3659
1503, 3604, 2122, 2123, 3602, 3662, 2151, 2152, 3660
1504, 1264, 3605, 3603, 1263, 1293, 3663, 3661, 1292
1505, 3605, 3606, 3604, 3603, 3663, 3664, 3662, 3661
1506, 3606, 2121, 2122, 3604, 3664, 2150, 2151, 3662
1507, 1265, 3607, 3605, 1264, 1294, 3665, 3663, 1293
1508, 3607, 3608, 3606, 3605, 3665, 3666, 3664, 3663
1509, 3608, 2120, 2121, 3606, 3666, 2149, 2150, 3664
1510, 1266, 3609, 3607, 1265, 1295, 3667, 3665, 1294
1511, 3609, 3610, 3608, 3607, 3667, 3668, 3666, 3665
1512, 3610, 2119, 2120, 3608, 3668, 2148, 2149, 3666
1513, 1267, 3611, 3609, 1266, 1296, 3669, 3667, 1295
1514, 3611, 3612, 3610, 3609, 3669, 3670, 3668, 3667
1515, 3612, 2118, 2119, 3610, 3670, 2147, 2148, 3668
1516, 1268, 3613, 3611, 1267, 1297, 3671, 3669, 1296
1517, 3613, 3614, 3612, 3611, 3671, 3672, 3670, 3669
1518, 3614, 2117, 2118, 3612, 3672, 2146, 2147, 3670
1519, 1269, 3615, 3613, 1268, 1298, 3673, 3671, 1297
1520, 3615, 3616, 3614, 3613, 3673, 3674, 3672, 3671
1521, 3616, 2116, 2117, 3614, 3674, 2145, 2146, 3672
1522, 1270, 3617, 3615, 1269, 1299, 3675, 3673, 1298
1523, 3617, 3618, 3616, 3615, 3675, 3676, 3674, 3673
1524, 3618, 2115, 2116, 3616, 3676, 2144, 2145, 3674
1525, 1271, 3619, 3617, 1270, 1300, 3677, 3675, 1299
1526, 3619, 3620, 3618, 3617, 3677, 3678, 3676, 3675
1527, 3620, 2114, 2115, 3618, 3678, 2143, 2144, 3676
1528, 1272, 3621, 3619, 1271, 1301, 3679, 3677, 1300
1529, 3621, 3622, 3620, 3619, 3679, 3680, 3678, 3677
1530, 3622, 2113, 2114, 3620, 3680, 2142, 2143, 3678
1531, 1273, 3623, 3621, 1272, 1302, 3681, 3679, 1301
1532, 3623, 3624, 3622, 3621, 3681, 3682, 3680, 3679
1533, 3624, 2112, 2113, 3622, 3682, 2141, 2142, 3680
1534, 1274, 3625, 3623, 1273, 1303, 3683, 3681, 1302
1535, 3625, 3626, 3624, 3623, 3683, 3684, 3682, 3681
1536, 3626, 2111, 2112, 3624, 3684, 2140, 2141, 3682
1537, 1275, 3627, 3625, 1274, 1304, 3685, 3683, 1303
1538, 3627, 3628, 3626, 3625, 3685, 3686, 3684, 3683
1539, 3628, 2110, 2111, 3626, 3686, 2139, 2140, 3684
1540, 1276, 3629, 3627, 1275, 1305, 3687, 3685, 1304
1541, 3629, 3630, 3628, 3627, 3687, 3688, 3686, 3685
1542, 3630, 2109, 2110, 3628, 3688, 2138, 2139, 3686
1543, 1277, 3631, 3629, 1276, 1306, 3689, 3687, 1305
1544, 3631, 3632, 3630, 3629, 3689, 3690, 3688, 3687
1545, 3632, 2108, 2109, 3630, 3690, 2137, 2138, 3688
1546, 1278, 3633, 3631, 1277, 1307, 3691, 3689, 1306
1547, 3633, 3634, 3632, 3631, 3691, 3692, 3690, 3689
1548, 3634, 2107, 2108, 3632, 3692, 2136, 2137, 3690
1549, 1279, 3635, 3633, 1278, 1308, 3693, 3691, 1307
1550, 3635, 3636, 3634, 3633, 3693, 3694, 3692, 3691
1551, 3636, 2106, 2107, 3634, 3694, 2135, 2136, 3692
1552, 1280, 3637, 3635, 1279, 1309, 3695, 3693, 1308
1553, 3637, 3638, 3636, 3635, 3695, 3696, 3694, 3693
1554, 3638, 2105, 2106, 3636, 3696, 2134, 2135, 3694
1555, 1281, 3639, 3637, 1280, 1310, 3697, 3695, 1309
1556, 3639, 3640, 3638, 3637, 3697, 3698, 3696, 3695
1557, 3640, 2104, 2105, 3638, 3698, 2133, 2134, 3696
1558, 1282, 3641, 3639, 1281, 1311, 3699, 3697, 1310
1559, 3641, 3642, 3640, 3639, 3699, 3700, 3698, 3697
1560, 3642, 2103, 2104, 3640, 3700, 2132, 2133, 3698
1561, 1283, 3643, 3641, 1282, 1312, 3701, 3699, 1311
1562, 3643, 3644, 3642, 3641, 3701, 3702, 3700, 3699
1563, 3644, 2102, 2103, 3642, 3702, 2131, 2132, 3700
1564, 1284, 3645, 3643, 1283, 1313, 3703, 3701, 1312
1565, 3645, 3646, 3644, 3643, 3703, 3704, 3702, 3701
1566, 3646, 2101, 2102, 3644, 3704, 2130, 2131, 3702
1567, 1285, 3647, 3645, 1284, 1314, 3705, 3703, 1313
1568, 3647, 3648, 3646, 3645, 3705, 3706, 3704, 3703
1569, 3648, 2100, 2101, 3646, 3706, 2129, 2130, 3704
1570, 1286, 3649, 3647, 1285, 1315, 3707, 3705, 1314
1571, 3649, 3650, 3648, 3647, 3707, 3708, 3706, 3705
1572, 3650, 2099, 2100, 3648, 3708, 2128, 2129, 3706
1573,  245, 1011, 3649, 1286,  244, 1013, 3707, 1315
1574, 1011, 1012, 3650, 3649, 1013, 1014, 3708, 3707
1575, 1012,  202, 2099, 3650, 1014,  203, 2128, 3708
1576, 1287, 3651,  587,   96, 1316, 3709,  586,   95
1577, 3651, 3652,  558,  587, 3709, 3710,  557,  586
1578, 3652, 2156,   46,  558, 3710, 2185,   45,  557
1579, 1288, 3653, 3651, 1287, 1317, 3711, 3709, 1316
1580, 3653, 3654, 3652, 3651, 3711, 3712, 3710, 3709
1581, 3654, 2155, 2156, 3652, 3712, 2184, 2185, 3710
1582, 1289, 3655, 3653, 1288, 1318, 3713, 3711, 1317
1583, 3655, 3656, 3654, 3653, 3713, 3714, 3712, 3711
1584, 3656, 2154, 2155, 3654, 3714, 2183, 2184, 3712
1585, 1290, 3657, 3655, 1289, 1319, 3715, 3713, 1318
1586, 3657, 3658, 3656, 3655, 3715, 3716, 3714, 3713
1587, 3658, 2153, 2154, 3656, 3716, 2182, 2183, 3714
1588, 1291, 3659, 3657, 1290, 1320, 3717, 3715, 1319
1589, 3659, 3660, 3658, 3657, 3717, 3718, 3716, 3715
1590, 3660, 2152, 2153, 3658, 3718, 2181, 2182, 3716
1591, 1292, 3661, 3659, 1291, 1321, 3719, 3717, 1320
1592, 3661, 3662, 3660, 3659, 3719, 3720, 3718, 3717
1593, 3662, 2151, 2152, 3660, 3720, 2180, 2181, 3718
1594, 1293, 3663, 3661, 1292, 1322, 3721, 3719, 1321
1595, 3663, 3664, 3662, 3661, 3721, 3722, 3720, 3719
1596, 3664, 2150, 2151, 3662, 3722, 2179, 2180, 3720
1597, 1294, 3665, 3663, 1293, 1323, 3723, 3721, 1322
1598, 3665, 3666, 3664, 3663, 3723, 3724, 3722, 3721
1599, 3666, 2149, 2150, 3664, 3724, 2178, 2179, 3722
1600, 1295, 3667, 3665, 1294, 1324, 3725, 3723, 1323
1601, 3667, 3668, 3666, 3665, 3725, 3726, 3724, 3723
1602, 3668, 2148, 2149, 3666, 3726, 2177, 2178, 3724
1603, 1296, 3669, 3667, 1295, 1325, 3727, 3725, 1324
1604, 3669, 3670, 3668, 3667, 3727, 3728, 3726, 3725
1605, 3670, 2147, 2148, 3668, 3728, 2176, 2177, 3726
1606, 1297, 3671, 3669, 1296, 1326, 3729, 3727, 1325
1607, 3671, 3672, 3670, 3669, 3729, 3730, 3728, 3727
1608, 3672, 2146, 2147, 3670, 3730, 2175, 2176, 3728
1609, 1298, 3673, 3671, 1297, 1327, 3731, 3729, 1326
1610, 3673, 3674, 3672, 3671, 3731, 3732, 3730, 3729
1611, 3674, 2145, 2146, 3672, 3732, 2174, 2175, 3730
1612, 1299, 3675, 3673, 1298, 1328, 3733, 3731, 1327
1613, 3675, 3676, 3674, 3673, 3733, 3734, 3732, 3731
1614, 3676, 2144, 2145, 3674, 3734, 2173, 2174, 3732
1615, 1300, 3677, 3675, 1299, 1329, 3735, 3733, 1328
1616, 3677, 3678, 3676, 3675, 3735, 3736, 3734, 3733
1617, 3678, 2143, 2144, 3676, 3736, 2172, 2173, 3734
1618, 1301, 3679, 3677, 1300, 1330, 3737, 3735, 1329
1619, 3679, 3680, 3678, 3677, 3737, 3738, 3736, 3735
1620, 3680, 2142, 2143, 3678, 3738, 2171, 2172, 3736
1621, 1302, 3681, 3679, 1301, 1331, 3739, 3737, 1330
1622, 3681, 3682, 3680, 3679, 3739, 3740, 3738, 3737
1623, 3682, 2141, 2142, 3680, 3740, 2170, 2171, 3738
1624, 1303, 3683, 3681, 1302, 1332, 3741, 3739, 1331
1625, 3683, 3684, 3682, 3681, 3741, 3742, 3740, 3739
1626, 3684, 2140, 2141, 3682, 3742, 2169, 2170, 3740
1627, 1304, 3685, 3683, 1303, 1333, 3743, 3741, 1332
1628, 3685, 3686, 3684, 3683, 3743, 3744, 3742, 3741
1629, 3686, 2139, 2140, 3684, 3744, 2168, 2169, 3742
1630, 1305, 3687, 3685, 1304, 1334, 3745, 3743, 1333
1631, 3687, 3688, 3686, 3685, 3745, 3746, 3744, 3743
1632, 3688, 2138, 2139, 3686, 3746, 2167, 2168, 3744
1633, 1306, 3689, 3687, 1305, 1335, 3747, 3745, 1334
1634, 3689, 3690, 3688, 3687, 3747, 3748, 3746, 3745
1635, 3690, 2137, 2138, 3688, 3748, 2166, 2167, 3746
1636, 1307, 3691, 3689, 1306, 1336, 3749, 3747, 1335
1637, 3691, 3692, 3690, 3689, 3749, 3750, 3748, 3747
1638, 3692, 2136, 2137, 3690, 3750, 2165, 2166, 3748
1639, 1308, 3693, 3691, 1307, 1337, 3751, 3749, 1336
1640, 3693, 3694, 3692, 3691, 3751, 3752, 3750, 3749
1641, 3694, 2135, 2136, 3692, 3752, 2164, 2165, 3750
1642, 1309, 3695, 3693, 1308, 1338, 3753, 3751, 1337
1643, 3695, 3696, 3694, 3693, 3753, 3754, 3752, 3751
1644, 3696, 2134, 2135, 3694, 3754, 2163, 2164, 3752
1645, 1310, 3697, 3695, 1309, 1339, 3755, 3753, 1338
1646, 3697, 3698, 3696, 3695, 3755, 3756, 3754, 3753
1647, 3698, 2133, 2134, 3696, 3756, 2162, 2163, 3754
1648, 1311, 3699, 3697, 1310, 1340, 3757, 3755, 1339
1649, 3699, 3700, 3698, 3697, 3757, 3758, 3756, 3755
1650, 3700, 2132, 2133, 3698, 3758, 2161, 2162, 3756
1651, 1312, 3701, 3699, 1311, 1341, 3759, 3757, 1340
1652, 3701, 3702, 3700, 3699, 3759, 3760, 3758, 3757
1653, 3702, 2131, 2132, 3700, 3760, 2160, 2161, 3758
1654, 1313, 3703, 3701, 1312, 1342, 3761, 3759, 1341
1655, 3703, 3704, 3702, 3701, 3761, 3762, 3760, 3759
1656, 3704, 2130, 2131, 3702, 3762, 2159, 2160, 3760
1657, 1314, 3705, 3703, 1313, 1343, 3763, 3761, 1342
1658, 3705, 3706, 3704, 3703, 3763, 3764, 3762, 3761
1659, 3706, 2129, 2130, 3704, 3764, 2158, 2159, 3762
1660, 1315, 3707, 3705, 1314, 1344, 3765, 3763, 1343
1661, 3707, 3708, 3706, 3705, 3765, 3766, 3764, 3763
1662, 3708, 2128, 2129, 3706, 3766, 2157, 2158, 3764
1663,  244, 1013, 3707, 1315,  243, 1015, 3765, 1344
1664, 1013, 1014, 3708, 3707, 1015, 1016, 3766, 3765
1665, 1014,  203, 2128, 3708, 1016,  204, 2157, 3766
1666, 1316, 3709,  586,   95, 1345, 3767,  585,   94
1667, 3709, 3710,  557,  586, 3767, 3768,  556,  585
1668, 3710, 2185,   45,  557, 3768, 2214,   44,  556
1669, 1317, 3711, 3709, 1316, 1346, 3769, 3767, 1345
1670, 3711, 3712, 3710, 3709, 3769, 3770, 3768, 3767
1671, 3712, 2184, 2185, 3710, 3770, 2213, 2214, 3768
1672, 1318, 3713, 3711, 1317, 1347, 3771, 3769, 1346
1673, 3713, 3714, 3712, 3711, 3771, 3772, 3770, 3769
1674, 3714, 2183, 2184, 3712, 3772, 2212, 2213, 3770
1675, 1319, 3715, 3713, 1318, 1348, 3773, 3771, 1347
1676, 3715, 3716, 3714, 3713, 3773, 3774, 3772, 3771
1677, 3716, 2182, 2183, 3714, 3774, 2211, 2212, 3772
1678, 1320, 3717, 3715, 1319, 1349, 3775, 3773, 1348
1679, 3717, 3718, 3716, 3715, 3775, 3776, 3774, 3773
1680, 3718, 2181, 2182, 3716, 3776, 2210, 2211, 3774
1681, 1321, 3719, 3717, 1320, 1350, 3777, 3775, 1349
1682, 3719, 3720, 3718, 3717, 3777, 3778, 3776, 3775
1683, 3720, 2180, 2181, 3718, 3778, 2209, 2210, 3776
1684, 1322, 3721, 3719, 1321, 1351, 3779, 3777, 1350
1685, 3721, 3722, 3720, 3719, 3779, 3780, 3778, 3777
1686, 3722, 2179, 2180, 3720, 3780, 2208, 2209, 3778
1687, 1323, 3723, 3721, 1322, 1352, 3781, 3779, 1351
1688, 3723, 3724, 3722, 3721, 3781, 3782, 3780, 3779
1689, 3724, 2178, 2179, 3722, 3782, 2207, 2208, 3780
1690, 1324, 3725, 3723, 1323, 1353, 3783, 3781, 1352
1691, 3725, 3726, 3724, 3723, 3783, 3784, 3782, 3781
1692, 3726, 2177, 2178, 3724, 3784, 2206, 2207, 3782
1693, 1325, 3727, 3725, 1324, 1354, 3785, 3783, 1353
1694, 3727, 3728, 3726, 3725, 3785, 3786, 3784, 3783
1695, 3728, 2176, 2177, 3726, 3786, 2205, 2206, 3784
1696, 1326, 3729, 3727, 1325, 1355, 3787, 3785, 1354
1697, 3729, 3730, 3728, 3727, 3787, 3788, 3786, 3785
1698, 3730, 2175, 2176, 3728, 3788, 2204, 2205, 3786
1699, 1327, 3731, 3729, 1326, 1356, 3789, 3787, 1355
1700, 3731, 3732, 3730, 3729, 3789, 3790, 3788, 3787
1701, 3732, 2174, 2175, 3730, 3790, 2203, 2204, 3788
1702, 1328, 3733, 3731, 1327, 1357, 3791, 3789, 1356
1703, 3733, 3734, 3732, 3731, 3791, 3792, 3790, 3789
1704, 3734, 2173, 2174, 3732, 3792, 2202, 2203, 3790
1705, 1329, 3735, 3733, 1328, 1358, 3793, 3791, 1357
1706, 3735, 3736, 3734, 3733, 3793, 3794, 3792, 3791
1707, 3736, 2172, 2173, 3734, 3794, 2201, 2202, 3792
1708, 1330, 3737, 3735, 1329, 1359, 3795, 3793, 1358
1709, 3737, 3738, 3736, 3735, 3795, 3796, 3794, 3793
1710, 3738, 2171, 2172, 3736, 3796, 2200, 2201, 3794
1711, 1331, 3739, 3737, 1330, 1360, 3797, 3795, 1359
1712, 3739, 3740, 3738, 3737, 3797, 3798, 3796, 3795
1713, 3740, 2170, 2171, 3738, 3798, 2199, 2200, 3796
1714, 1332, 3741, 3739, 1331, 1361, 3799, 3797, 1360
1715, 3741, 3742, 3740, 3739, 3799, 3800, 3798, 3797
1716, 3742, 2169, 2170, 3740, 3800, 2198, 2199, 3798
1717, 1333, 3743, 3741, 1332, 1362, 3801, 3799, 1361
1718, 3743, 3744, 3742, 3741, 3801, 3802, 3800, 3799
1719, 3744, 2168, 2169, 3742, 3802, 2197, 2198, 3800
1720, 1334, 3745, 3743, 1333, 1363, 3803, 3801, 1362
1721, 3745, 3746, 3744, 3743, 3803, 3804, 3802, 3801
1722, 3746, 2167, 2168, 3744, 3804, 2196, 2197, 3802
1723, 1335, 3747, 3745, 1334, 1364, 3805, 3803, 1363
1724, 3747, 3748, 3746, 3745, 3805, 3806, 3804, 3803
1725, 3748, 2166, 2167, 3746, 3806, 2195, 2196, 3804
1726, 1336, 3749, 3747, 1335, 1365, 3807, 3805, 1364
1727, 3749, 3750, 3748, 3747, 3807, 3808, 3806, 3805
1728, 3750, 2165, 2166, 3748, 3808, 2194, 2195, 3806
1729, 1337, 3751, 3749, 1336, 1366, 3809, 3807, 1365
1730, 3751, 3752, 3750, 3749, 3809, 3810, 3808, 3807
1731, 3752, 2164, 2165, 3750, 3810, 2193, 2194, 3808
1732, 1338, 3753, 3751, 1337, 1367, 3811, 3809, 1366
1733, 3753, 3754, 3752, 3751, 3811, 3812, 3810, 3809
1734, 3754, 2163, 2164, 3752, 3812, 2192, 2193, 3810
1735, 1339, 3755, 3753, 1338, 1368, 3813, 3811, 1367
1736, 3755, 3756, 3754, 3753, 3813, 3814, 3812, 3811
1737, 3756, 2162, 2163, 3754, 3814, 2191, 2192, 3812
1738, 1340, 3757, 3755, 1339, 1369, 3815, 3813, 1368
1739, 3757, 3758, 3756, 3755, 3815, 3816, 3814, 3813
1740, 3758, 2161, 2162, 3756, 3816, 2190, 2191, 3814
1741, 1341, 3759, 3757, 1340, 1370, 3817, 3815, 1369
1742, 3759, 3760, 3758, 3757, 3817, 3818, 3816, 3815
1743, 3760, 2160, 2161, 3758, 3818, 2189, 2190, 3816
1744, 1342, 3761, 3759, 1341, 1371, 3819, 3817, 1370
1745, 3761, 3762, 3760, 3759, 3819, 3820, 3818, 3817
1746, 3762, 2159, 2160, 3760, 3820, 2188, 2189, 3818
1747, 1343, 3763, 3761, 1342, 1372, 3821, 3819, 1371
1748, 3763, 3764, 3762, 3761, 3821, 3822, 3820, 3819
1749, 3764, 2158, 2159, 3762, 3822, 2187, 2188, 3820
1750, 1344, 3765, 3763, 1343, 1373, 3823, 3821, 1372
1751, 3765, 3766, 3764, 3763, 3823, 3824, 3822, 3821
1752, 3766, 2157, 2158, 3764, 3824, 2186, 2187, 3822
1753,  243, 1015, 3765, 1344,  242, 1017, 3823, 1373
1754, 1015, 1016, 3766, 3765, 1017, 1018, 3824, 3823
1755, 1016,  204, 2157, 3766, 1018,  205, 2186, 3824
1756, 1345, 3767,  585,   94, 1374, 3825,  584,   93
1757, 3767, 3768,  556,  585, 3825, 3826,  555,  584
1758, 3768, 2214,   44,  556, 3826, 2243,   43,  555
1759, 1346, 3769, 3767, 1345, 1375, 3827, 3825, 1374
1760, 3769, 3770, 3768, 3767, 3827, 3828, 3826, 3825
1761, 3770, 2213, 2214, 3768, 3828, 2242, 2243, 3826
1762, 1347, 3771, 3769, 1346, 1376, 3829, 3827, 1375
1763, 3771, 3772, 3770, 3769, 3829, 3830, 3828, 3827
1764, 3772, 2212, 2213, 3770, 3830, 2241, 2242, 3828
1765, 1348, 3773, 3771, 1347, 1377, 3831, 3829, 1376
1766, 3773, 3774, 3772, 3771, 3831, 3832, 3830, 3829
1767, 3774, 2211, 2212, 3772, 3832, 2240, 2241, 3830
1768, 1349, 3775, 3773, 1348, 1378, 3833, 3831, 1377
1769, 3775, 3776, 3774, 3773, 3833, 3834, 3832, 3831
1770, 3776, 2210, 2211, 3774, 3834, 2239, 2240, 3832
1771, 1350, 3777, 3775, 1349, 1379, 3835, 3833, 1378
1772, 3777, 3778, 3776, 3775, 3835, 3836, 3834, 3833
1773, 3778, 2209, 2210, 3776, 3836, 2238, 2239, 3834
1774, 1351, 3779, 3777, 1350, 1380, 3837, 3835, 1379
1775, 3779, 3780, 3778, 3777, 3837, 3838, 3836, 3835
1776, 3780, 2208, 2209, 3778, 3838, 2237, 2238, 3836
1777, 1352, 3781, 3779, 1351, 1381, 3839, 3837, 1380
1778, 3781, 3782, 3780, 3779, 3839, 3840, 3838, 3837
1779, 3782, 2207, 2208, 3780, 3840, 2236, 2237, 3838
1780, 1353, 3783, 3781, 1352, 1382, 3841, 3839, 1381
1781, 3783, 3784, 3782, 3781, 3841, 3842, 3840, 3839
1782, 3784, 2206, 2207, 3782, 3842, 2235, 2236, 3840
1783, 1354, 3785, 3783, 1353, 1383, 3843, 3841, 1382
1784, 3785, 3786, 3784, 3783, 3843, 3844, 3842, 3841
1785, 3786, 2205, 2206, 3784, 3844, 2234, 2235, 3842
1786, 1355, 3787, 3785, 1354, 1384, 3845, 3843, 1383
1787, 3787, 3788, 3786, 3785, 3845, 3846, 3844, 3843
1788, 3788, 2204, 2205, 3786, 3846, 2233, 2234, 3844
1789, 1356, 3789, 3787, 1355, 1385, 3847, 3845, 1384
1790, 3789, 3790, 3788, 3787, 3847, 3848, 3846, 3845
1791, 3790, 2203, 2204, 3788, 3848, 2232, 2233, 3846
1792, 1357, 3791, 3789, 1356, 1386, 3849, 3847, 1385
1793, 3791, 3792, 3790, 3789, 3849, 3850, 3848, 3847
1794, 3792, 2202, 2203, 3790, 3850, 2231, 2232, 3848
1795, 1358, 3793, 3791, 1357, 1387, 3851, 3849, 1386
1796, 3793, 3794, 3792, 3791, 3851, 3852, 3850, 3849
1797, 3794, 2201, 2202, 3792, 3852, 2230, 2231, 3850
1798, 1359, 3795, 3793, 1358, 1388, 3853, 3851, 1387
1799, 3795, 3796, 3794, 3793, 3853, 3854, 3852, 3851
1800, 3796, 2200, 2201, 3794, 3854, 2229, 2230, 3852
1801, 1360, 3797, 3795, 1359, 1389, 3855, 3853, 1388
1802, 3797, 3798, 3796, 3795, 3855, 3856, 3854, 3853
1803, 3798, 2199, 2200, 3796, 3856, 2228, 2229, 3854
1804, 1361, 3799, 3797, 1360, 1390, 3857, 3855, 1389
1805, 3799, 3800, 3798, 3797, 3857, 3858, 3856, 3855
1806, 3800, 2198, 2199, 3798, 3858, 2227, 2228, 3856
1807, 1362, 3801, 3799, 1361, 1391, 3859, 3857, 1390
1808, 3801, 3802, 3800, 3799, 3859, 3860, 3858, 3857
1809, 3802, 2197, 2198, 3800, 3860, 2226, 2227, 3858
1810, 1363, 3803, 3801, 1362, 1392, 3861, 3859, 1391
1811, 3803, 3804, 3802, 3801, 3861, 3862, 3860, 3859
1812, 3804, 2196, 2197, 3802, 3862, 2225, 2226, 3860
1813, 1364, 3805, 3803, 1363, 1393, 3863, 3861, 1392
1814, 3805, 3806, 3804, 3803, 3863, 3864, 3862, 3861
1815, 3806, 2195, 2196, 3804, 3864, 2224, 2225, 3862
1816, 1365, 3807, 3805, 1364, 1394, 3865, 3863, 1393
1817, 3807, 3808, 3806, 3805, 3865, 3866, 3864, 3863
1818, 3808, 2194, 2195, 3806, 3866, 2223, 2224, 3864
1819, 1366, 3809, 3807, 1365, 1395, 3867, 3865, 1394
1820, 3809, 3810, 3808, 3807, 3867, 3868, 3866, 3865
1821, 3810, 2193, 2194, 3808, 3868, 2222, 2223, 3866
1822, 1367, 3811, 3809, 1366, 1396, 3869, 3867, 1395
1823, 3811, 3812, 3810, 3809, 3869, 3870, 3868, 3867
1824, 3812, 2192, 2193, 3810, 3870, 2221, 2222, 3868
1825, 1368, 3813, 3811, 1367, 1397, 3871, 3869, 1396
1826, 3813, 3814, 3812, 3811, 3871, 3872, 3870, 3869
1827, 3814, 2191, 2192, 3812, 3872, 2220, 2221, 3870
1828, 1369, 3815, 3813, 1368, 1398, 3873, 3871, 1397
1829, 3815, 3816, 3814, 3813, 3873, 3874, 3872, 3871
1830, 3816, 2190, 2191, 3814, 3874, 2219, 2220, 3872
1831, 1370, 3817, 3815, 1369, 1399, 3875, 3873, 1398
1832, 3817, 3818, 3816, 3815, 3875, 3876, 3874, 3873
1833, 3818, 2189, 2190, 3816, 3876, 2218, 2219, 3874
1834, 1371, 3819, 3817, 1370, 1400, 3877, 3875, 1399
1835, 3819, 3820, 3818, 3817, 3877, 3878, 3876, 3875
1836, 3820, 2188, 2189, 3818, 3878, 2217, 2218, 3876
1837, 1372, 3821, 3819, 1371, 1401, 3879, 3877, 1400
1838, 3821, 3822, 3820, 3819, 3879, 3880, 3878, 3877
1839, 3822, 2187, 2188, 3820, 3880, 2216, 2217, 3878
1840, 1373, 3823, 3821, 1372, 1402, 3881, 3879, 1401
1841, 3823, 3824, 3822, 3821, 3881, 3882, 3880, 3879
1842, 3824, 2186, 2187, 3822, 3882, 2215, 2216, 3880
1843,  242, 1017, 3823, 1373,  241, 1019, 3881, 1402
1844, 1017, 1018, 3824, 3823, 1019, 1020, 3882, 3881
1845, 1018,  205, 2186, 3824, 1020,  206, 2215, 3882
1846, 1374, 3825,  584,   93, 1403, 3883,  583,   92
1847, 3825, 3826,  555,  584, 3883, 3884,  554,  583
1848, 3826, 2243,   43,  555, 3884, 2272,   42,  554
1849, 1375, 3827, 3825, 1374, 1404, 3885, 3883, 1403
1850, 3827, 3828, 3826, 3825, 3885, 3886, 3884, 3883
1851, 3828, 2242, 2243, 3826, 3886, 2271, 2272, 3884
1852, 1376, 3829, 3827, 1375, 1405, 3887, 3885, 1404
1853, 3829, 3830, 3828, 3827, 3887, 3888, 3886, 3885
1854, 3830, 2241, 2242, 3828, 3888, 2270, 2271, 3886
1855, 1377, 3831, 3829, 1376, 1406, 3889, 3887, 1405
1856, 3831, 3832, 3830, 3829, 3889, 3890, 3888, 3887
1857, 3832, 2240, 2241, 3830, 3890, 2269, 2270, 3888
1858, 1378, 3833, 3831, 1377, 1407, 3891, 3889, 1406
1859, 3833, 3834, 3832, 3831, 3891, 3892, 3890, 3889
1860, 3834, 2239, 2240, 3832, 3892, 2268, 2269, 3890
1861, 1379, 3835, 3833, 1378, 1408, 3893, 3891, 1407
1862, 3835, 3836, 3834, 3833, 3893, 3894, 3892, 3891
1863, 3836, 2238, 2239, 3834, 3894, 2267, 2268, 3892
1864, 1380, 3837, 3835, 1379, 1409, 3895, 3893, 1408
1865, 3837, 3838, 3836, 3835, 3895, 3896, 3894, 3893
1866, 3838, 2237, 2238, 3836, 3896, 2266, 2267, 3894
1867, 1381, 3839, 3837, 1380, 1410, 3897, 3895, 1409
1868, 3839, 3840, 3838, 3837, 3897, 3898, 3896, 3895
1869, 3840, 2236, 2237, 3838, 3898, 2265, 2266, 3896
1870, 1382, 3841, 3839, 1381, 1411, 3899, 3897, 1410
1871, 3841, 3842, 3840, 3839, 3899, 3900, 3898, 3897
1872, 3842, 2235, 2236, 3840, 3900, 2264, 2265, 3898
1873, 1383, 3843, 3841, 1382, 1412, 3901, 3899, 1411
1874, 3843, 3844, 3842, 3841, 3901, 3902, 3900, 3899
1875, 3844, 2234, 2235, 3842, 3902, 2263, 2264, 3900
1876, 1384, 3845, 3843, 1383, 1413, 3903, 3901, 1412
1877, 3845, 3846, 3844, 3843, 3903, 3904, 3902, 3901
1878, 3846, 2233, 2234, 3844, 3904, 2262, 2263, 3902
1879, 1385, 3847, 3845, 1384, 1414, 3905, 3903, 1413
1880, 3847, 3848, 3846, 3845, 3905, 3906, 3904, 3903
1881, 3848, 2232, 2233, 3846, 3906, 2261, 2262, 3904
1882, 1386, 3849, 3847, 1385, 1415, 3907, 3905, 1414
1883, 3849, 3850, 3848, 3847, 3907, 3908, 3906, 3905
1884, 3850, 2231, 2232, 3848, 3908, 2260, 2261, 3906
1885, 1387, 3851, 3849, 1386, 1416, 3909, 3907, 1415
1886, 3851, 3852, 3850, 3849, 3909, 3910, 3908, 3907
1887, 3852, 2230, 2231, 3850, 3910, 2259, 2260, 3908
1888, 1388, 3853, 3851, 1387, 1417, 3911, 3909, 1416
1889, 3853, 3854, 3852, 3851, 3911, 3912, 3910, 3909
1890, 3854, 2229, 2230, 3852, 3912, 2258, 2259, 3910
1891, 1389, 3855, 3853, 1388, 1418, 3913, 3911, 1417
1892, 3855, 3856, 3854, 3853, 3913, 3914, 3912, 3911
1893, 3856, 2228, 2229, 3854, 3914, 2257, 2258, 3912
1894, 1390, 3857, 3855, 1389, 1419, 3915, 3913, 1418
1895, 3857, 3858, 3856, 3855, 3915, 3916, 3914, 3913
1896, 3858, 2227, 2228, 3856, 3916, 2256, 2257, 3914
1897, 1391, 3859, 3857, 1390, 1420, 3917, 3915, 1419
1898, 3859, 3860, 3858, 3857, 3917, 3918, 3916, 3915
1899, 3860, 2226, 2227, 3858, 3918, 2255, 2256, 3916
1900, 1392, 3861, 3859, 1391, 1421, 3919, 3917, 1420
1901, 3861, 3862, 3860, 3859, 3919, 3920, 3918, 3917
1902, 3862, 2225, 2226, 3860, 3920, 2254, 2255, 3918
1903, 1393, 3863, 3861, 1392, 1422, 3921, 3919, 1421
1904, 3863, 3864, 3862, 3861, 3921, 3922, 3920, 3919
1905, 3864, 2224, 2225, 3862, 3922, 2253, 2254, 3920
1906, 1394, 3865, 3863, 1393, 1423, 3923, 3921, 1422
1907, 3865, 3866, 3864, 3863, 3923, 3924, 3922, 3921
1908, 3866, 2223, 2224, 3864, 3924, 2252, 2253, 3922
1909, 1395, 3867, 3865, 1394, 1424, 3925, 3923, 1423
1910, 3867, 3868, 3866, 3865, 3925, 3926, 3924, 3923
1911, 3868, 2222, 2223, 3866, 3926, 2251, 2252, 3924
1912, 1396, 3869, 3867, 1395, 1425, 3927, 3925, 1424
1913, 3869, 3870, 3868, 3867, 3927, 3928, 3926, 3925
1914, 3870, 2221, 2222, 3868, 3928, 2250, 2251, 3926
1915, 1397, 3871, 3869, 1396, 1426, 3929, 3927, 1425
1916, 3871, 3872, 3870, 3869, 3929, 3930, 3928, 3927
1917, 3872, 2220, 2221, 3870, 3930, 2249, 2250, 3928
1918, 1398, 3873, 3871, 1397, 1427, 3931, 3929, 1426
1919, 3873, 3874, 3872, 3871, 3931, 3932, 3930, 3929
1920, 3874, 2219, 2220, 3872, 3932, 2248, 2249, 3930
1921, 1399, 3875, 3873, 1398, 1428, 3933, 3931, 1427
1922, 3875, 3876, 3874, 3873, 3933, 3934, 3932, 3931
1923, 3876, 2218, 2219, 3874, 3934, 2247, 2248, 3932
1924, 1400, 3877, 3875, 1399, 1429, 3935, 3933, 1428
1925, 3877, 3878, 3876, 3875, 3935, 3936, 3934, 3933
1926, 3878, 2217, 2218, 3876, 3936, 2246, 2247, 3934
1927, 1401, 3879, 3877, 1400, 1430, 3937, 3935, 1429
1928, 3879, 3880, 3878, 3877, 3937, 3938, 3936, 3935
1929, 3880, 2216, 2217, 3878, 3938, 2245, 2246, 3936
1930, 1402, 3881, 3879, 1401, 1431, 3939, 3937, 1430
1931, 3881, 3882, 3880, 3879, 3939, 3940, 3938, 3937
1932, 3882, 2215, 2216, 3880, 3940, 2244, 2245, 3938
1933,  241, 1019, 3881, 1402,  240, 1021, 3939, 1431
1934, 1019, 1020, 3882, 3881, 1021, 1022, 3940, 3939
1935, 1020,  206, 2215, 3882, 1022,  207, 2244, 3940
1936, 1403, 3883,  583,   92, 1432, 3941,  582,   91
1937, 3883, 3884,  554,  583, 3941, 3942,  553,  582
1938, 3884, 2272,   42,  554, 3942, 2301,   41,  553
1939, 1404, 3885, 3883, 1403, 1433, 3943, 3941, 1432
1940, 3885, 3886, 3884, 3883, 3943, 3944, 3942, 3941
1941, 3886, 2271, 2272, 3884, 3944, 2300, 2301, 3942
1942, 1405, 3887, 3885, 1404, 1434, 3945, 3943, 1433
1943, 3887, 3888, 3886, 3885, 3945, 3946, 3944, 3943
1944, 3888, 2270, 2271, 3886, 3946, 2299, 2300, 3944
1945, 1406, 3889, 3887, 1405, 1435, 3947, 3945, 1434
1946, 3889, 3890, 3888, 3887, 3947, 3948, 3946, 3945
1947, 3890, 2269, 2270, 3888, 3948, 2298, 2299, 3946
1948, 1407, 3891, 3889, 1406, 1436, 3949, 3947, 1435
1949, 3891, 3892, 3890, 3889, 3949, 3950, 3948, 3947
1950, 3892, 2268, 2269, 3890, 3950, 2297, 2298, 3948
1951, 1408, 3893, 3891, 1407, 1437, 3951, 3949, 1436
1952, 3893, 3894, 3892, 3891, 3951, 3952, 3950, 3949
1953, 3894, 2267, 2268, 3892, 3952, 2296, 2297, 3950
1954, 1409, 3895, 3893, 1408, 1438, 3953, 3951, 1437
1955, 3895, 3896, 3894, 3893, 3953, 3954, 3952, 3951
1956, 3896, 2266, 2267, 3894, 3954, 2295, 2296, 3952
1957, 1410, 3897, 3895, 1409, 1439, 3955, 3953, 1438
1958, 3897, 3898, 3896, 3895, 3955, 3956, 3954, 3953
1959, 3898, 2265, 2266, 3896, 3956, 2294, 2295, 3954
1960, 1411, 3899, 3897, 1410, 1440, 3957, 3955, 1439
1961, 3899, 3900, 3898, 3897, 3957, 3958, 3956, 3955
1962, 3900, 2264, 2265, 3898, 3958, 2293, 2294, 3956
1963, 1412, 3901, 3899, 1411, 1441, 3959, 3957, 1440
1964, 3901, 3902, 3900, 3899, 3959, 3960, 3958, 3957
1965, 3902, 2263, 2264, 3900, 3960, 2292, 2293, 3958
1966, 1413, 3903, 3901, 1412, 1442, 3961, 3959, 1441
1967, 3903, 3904, 3902, 3901, 3961, 3962, 3960, 3959
1968, 3904, 2262, 2263, 3902, 3962, 2291, 2292, 3960
1969, 1414, 3905, 3903, 1413, 1443, 3963, 3961, 1442
1970, 3905, 3906, 3904, 3903, 3963, 3964, 3962, 3961
1971, 3906, 2261, 2262, 3904, 3964, 2290, 2291, 3962
1972, 1415, 3907, 3905, 1414, 1444, 3965, 3963, 1443
1973, 3907, 3908, 3906, 3905, 3965, 3966, 3964, 3963
1974, 3908, 2260, 2261, 3906, 3966, 2289, 2290, 3964
1975, 1416, 3909, 3907, 1415, 1445, 3967, 3965, 1444
1976, 3909, 3910, 3908, 3907, 3967, 3968, 3966, 3965
1977, 3910, 2259, 2260, 3908, 3968, 2288, 2289, 3966
1978, 1417, 3911, 3909, 1416, 1446, 3969, 3967, 1445
1979, 3911, 3912, 3910, 3909, 3969, 3970, 3968, 3967
1980, 3912, 2258, 2259, 3910, 3970, 2287, 2288, 3968
1981, 1418, 3913, 3911, 1417, 1447, 3971, 3969, 1446
1982, 3913, 3914, 3912, 3911, 3971, 3972, 3970, 3969
1983, 3914, 2257, 2258, 3912, 3972, 2286, 2287, 3970
1984, 1419, 3915, 3913, 1418, 1448, 3973, 3971, 1447
1985, 3915, 3916, 3914, 3913, 3973, 3974, 3972, 3971
1986, 3916, 2256, 2257, 3914, 3974, 2285, 2286, 3972
1987, 1420, 3917, 3915, 1419, 1449, 3975, 3973, 1448
1988, 3917, 3918, 3916, 3915, 3975, 3976, 3974, 3973
1989, 3918, 2255, 2256, 3916, 3976, 2284, 2285, 3974
1990, 1421, 3919, 3917, 1420, 1450, 3977, 3975, 1449
1991, 3919, 3920, 3918, 3917, 3977, 3978, 3976, 3975
1992, 3920, 2254, 2255, 3918, 3978, 2283, 2284, 3976
1993, 1422, 3921, 3919, 1421, 1451, 3979, 3977, 1450
1994, 3921, 3922, 3920, 3919, 3979, 3980, 3978, 3977
1995, 3922, 2253, 2254, 3920, 3980, 2282, 2283, 3978
1996, 1423, 3923, 3921, 1422, 1452, 3981, 3979, 1451
1997, 3923, 3924, 3922, 3921, 3981, 3982, 3980, 3979
1998, 3924, 2252, 2253, 3922, 3982, 2281, 2282, 3980
1999, 1424, 3925, 3923, 1423, 1453, 3983, 3981, 1452
2000, 3925, 3926, 3924, 3923, 3983, 3984, 3982, 3981
2001, 3926, 2251, 2252, 3924, 3984, 2280, 2281, 3982
2002, 1425, 3927, 3925, 1424, 1454, 3985, 3983, 1453
2003, 3927, 3928, 3926, 3925, 3985, 3986, 3984, 3983
2004, 3928, 2250, 2251, 3926, 3986, 2279, 2280, 3984
2005, 1426, 3929, 3927, 1425, 1455, 3987, 3985, 1454
2006, 3929, 3930, 3928, 3927, 3987, 3988, 3986, 3985
2007, 3930, 2249, 2250, 3928, 3988, 2278, 2279, 3986
2008, 1427, 3931, 3929, 1426, 1456, 3989, 3987, 1455
2009, 3931, 3932, 3930, 3929, 3989, 3990, 3988, 3987
2010, 3932, 2248, 2249, 3930, 3990, 2277, 2278, 3988
2011, 1428, 3933, 3931, 1427, 1457, 3991, 3989, 1456
2012, 3933, 3934, 3932, 3931, 3991, 3992, 3990, 3989
2013, 3934, 2247, 2248, 3932, 3992, 2276, 2277, 3990
2014, 1429, 3935, 3933, 1428, 1458, 3993, 3991, 1457
2015, 3935, 3936, 3934, 3933, 3993, 3994, 3992, 3991
2016, 3936, 2246, 2247, 3934, 3994, 2275, 2276, 3992
2017, 1430, 3937, 3935, 1429, 1459, 3995, 3993, 1458
2018, 3937, 3938, 3936, 3935, 3995, 3996, 3994, 3993
2019, 3938, 2245, 2246, 3936, 3996, 2274, 2275, 3994
2020, 1431, 3939, 3937, 1430, 1460, 3997, 3995, 1459
2021, 3939, 3940, 3938, 3937, 3997, 3998, 3996, 3995
2022, 3940, 2244, 2245, 3938, 3998, 2273, 2274, 3996
2023,  240, 1021, 3939, 1431,  239, 1023, 3997, 1460
2024, 1021, 1022, 3940, 3939, 1023, 1024, 3998, 3997
2025, 1022,  207, 2244, 3940, 1024,  208, 2273, 3998
2026, 1432, 3941,  582,   91, 1461, 3999,  581,   90
2027, 3941, 3942,  553,  582, 3999, 4000,  552,  581
2028, 3942, 2301,   41,  553, 4000, 2330,   40,  552
2029, 1433, 3943, 3941, 1432, 1462, 4001, 3999, 1461
2030, 3943, 3944, 3942, 3941, 4001, 4002, 4000, 3999
2031, 3944, 2300, 2301, 3942, 4002, 2329, 2330, 4000
2032, 1434, 3945, 3943, 1433, 1463, 4003, 4001, 1462
2033, 3945, 3946, 3944, 3943, 4003, 4004, 4002, 4001
2034, 3946, 2299, 2300, 3944, 4004, 2328, 2329, 4002
2035, 1435, 3947, 3945, 1434, 1464, 4005, 4003, 1463
2036, 3947, 3948, 3946, 3945, 4005, 4006, 4004, 4003
2037, 3948, 2298, 2299, 3946, 4006, 2327, 2328, 4004
2038, 1436, 3949, 3947, 1435, 1465, 4007, 4005, 1464
2039, 3949, 3950, 3948, 3947, 4007, 4008, 4006, 4005
2040, 3950, 2297, 2298, 3948, 4008, 2326, 2327, 4006
2041, 1437, 3951, 3949, 1436, 1466, 4009, 4007, 1465
2042, 3951, 3952, 3950, 3949, 4009, 4010, 4008, 4007
2043, 3952, 2296, 2297, 3950, 4010, 2325, 2326, 4008
2044, 1438, 3953, 3951, 1437, 1467, 4011, 4009, 1466
2045, 3953, 3954, 3952, 3951, 4011, 4012, 4010, 4009
2046, 3954, 2295, 2296, 3952, 4012, 2324, 2325, 4010
2047, 1439, 3955, 3953, 1438, 1468, 4013, 4011, 1467
2048, 3955, 3956, 3954, 3953, 4013, 4014, 4012, 4011
2049, 3956, 2294, 2295, 3954, 4014, 2323, 2324, 4012
2050, 1440, 3957, 3955, 1439, 1469, 4015, 4013, 1468
2051, 3957, 3958, 3956, 3955, 4015, 4016, 4014, 4013
2052, 3958, 2293, 2294, 3956, 4016, 2322, 2323, 4014
2053, 1441, 3959, 3957, 1440, 1470, 4017, 4015, 1469
2054, 3959, 3960, 3958, 3957, 4017, 4018, 4016, 4015
2055, 3960, 2292, 2293, 3958, 4018, 2321, 2322, 4016
2056, 1442, 3961, 3959, 1441, 1471, 4019, 4017, 1470
2057, 3961, 3962, 3960, 3959, 4019, 4020, 4018, 4017
2058, 3962, 2291, 2292, 3960, 4020, 2320, 2321, 4018
2059, 1443, 3963, 3961, 1442, 1472, 4021, 4019, 1471
2060, 3963, 3964, 3962, 3961, 4021, 4022, 4020, 4019
2061, 3964, 2290, 2291, 3962, 4022, 2319, 2320, 4020
2062, 1444, 3965, 3963, 1443, 1473, 4023, 4021, 1472
2063, 3965, 3966, 3964, 3963, 4023, 4024, 4022, 4021
2064, 3966, 2289, 2290, 3964, 4024, 2318, 2319, 4022
2065, 1445, 3967, 3965, 1444, 1474, 4025, 4023, 1473
2066, 3967, 3968, 3966, 3965, 4025, 4026, 4024, 4023
2067, 3968, 2288, 2289, 3966, 4026, 2317, 2318, 4024
2068, 1446, 3969, 3967, 1445, 1475, 4027, 4025, 1474
2069, 3969, 3970, 3968, 3967, 4027, 4028, 4026, 4025
2070, 3970, 2287, 2288, 3968, 4028, 2316, 2317, 4026
2071, 1447, 3971, 3969, 1446, 1476, 4029, 4027, 1475
2072, 3971, 3972, 3970, 3969, 4029, 4030, 4028, 4027
2073, 3972, 2286, 2287, 3970, 4030, 2315, 2316, 4028
2074, 1448, 3973, 3971, 1447, 1477, 4031, 4029, 1476
2075, 3973, 3974, 3972, 3971, 4031, 4032, 4030, 4029
2076, 3974, 2285, 2286, 3972, 4032, 2314, 2315, 4030
2077, 1449, 3975, 3973, 1448, 1478, 4033, 4031, 1477
2078, 3975, 3976, 3974, 3973, 4033, 4034, 4032, 4031
2079, 3976, 2284, 2285, 3974, 4034, 2313, 2314, 4032
2080, 1450, 3977, 3975, 1449, 1479, 4035, 4033, 1478
2081, 3977, 3978, 3976, 3975, 4035, 4036, 4034, 4033
2082, 3978, 2283, 2284, 3976, 4036, 2312, 2313, 4034
2083, 1451, 3979, 3977, 1450, 1480, 4037, 4035, 1479
2084, 3979, 3980, 3978, 3977, 4037, 4038, 4036, 4035
2085, 3980, 2282, 2283, 3978, 4038, 2311, 2312, 4036
2086, 1452, 3981, 3979, 1451, 1481, 4039, 4037, 1480
2087, 3981, 3982, 3980, 3979, 4039, 4040, 4038, 4037
2088, 3982, 2281, 2282, 3980, 4040, 2310, 2311, 4038
2089, 1453, 3983, 3981, 1452, 1482, 4041, 4039, 1481
2090, 3983, 3984, 3982, 3981, 4041, 4042, 4040, 4039
2091, 3984, 2280, 2281, 3982, 4042, 2309, 2310, 4040
2092, 1454, 3985, 3983, 1453, 1483, 4043, 4041, 1482
2093, 3985, 3986, 3984, 3983, 4043, 4044, 4042, 4041
2094, 3986, 2279, 2280, 3984, 4044, 2308, 2309, 4042
2095, 1455, 3987, 3985, 1454, 1484, 4045, 4043, 1483
2096, 3987, 3988, 3986, 3985, 4045, 4046, 4044, 4043
2097, 3988, 2278, 2279, 3986, 4046, 2307, 2308, 4044
2098, 1456, 3989, 3987, 1455, 1485, 4047, 4045, 1484
2099, 3989, 3990, 3988, 3987, 4047, 4048, 4046, 4045
2100, 3990, 2277, 2278, 3988, 4048, 2306, 2307, 4046
2101, 1457, 3991, 3989, 1456, 1486, 4049, 4047, 1485
2102, 3991, 3992, 3990, 3989, 4049, 4050, 4048, 4047
2103, 3992, 2276, 2277, 3990, 4050, 2305, 2306, 4048
2104, 1458, 3993, 3991, 1457, 1487, 4051, 4049, 1486
2105, 3993, 3994, 3992, 3991, 4051, 4052, 4050, 4049
2106, 3994, 2275, 2276, 3992, 4052, 2304, 2305, 4050
2107, 1459, 3995, 3993, 1458, 1488, 4053, 4051, 1487
2108, 3995, 3996, 3994, 3993, 4053, 4054, 4052, 4051
2109, 3996, 2274, 2275, 3994, 4054, 2303, 2304, 4052
2110, 1460, 3997, 3995, 1459, 1489, 4055, 4053, 1488
2111, 3997, 3998, 3996, 3995, 4055, 4056, 4054, 4053
2112, 3998, 2273, 2274, 3996, 4056, 2302, 2303, 4054
2113,  239, 1023, 3997, 1460,  238, 1025, 4055, 1489
2114, 1023, 1024, 3998, 3997, 1025, 1026, 4056, 4055
2115, 1024,  208, 2273, 3998, 1026,  209, 2302, 4056
2116, 1461, 3999,  581,   90, 1490, 4057,  580,   89
2117, 3999, 4000,  552,  581, 4057, 4058,  551,  580
2118, 4000, 2330,   40,  552, 4058, 2359,   39,  551
2119, 1462, 4001, 3999, 1461, 1491, 4059, 4057, 1490
2120, 4001, 4002, 4000, 3999, 4059, 4060, 4058, 4057
2121, 4002, 2329, 2330, 4000, 4060, 2358, 2359, 4058
2122, 1463, 4003, 4001, 1462, 1492, 4061, 4059, 1491
2123, 4003, 4004, 4002, 4001, 4061, 4062, 4060, 4059
2124, 4004, 2328, 2329, 4002, 4062, 2357, 2358, 4060
2125, 1464, 4005, 4003, 1463, 1493, 4063, 4061, 1492
2126, 4005, 4006, 4004, 4003, 4063, 4064, 4062, 4061
2127, 4006, 2327, 2328, 4004, 4064, 2356, 2357, 4062
2128, 1465, 4007, 4005, 1464, 1494, 4065, 4063, 1493
2129, 4007, 4008, 4006, 4005, 4065, 4066, 4064, 4063
2130, 4008, 2326, 2327, 4006, 4066, 2355, 2356, 4064
2131, 1466, 4009, 4007, 1465, 1495, 4067, 4065, 1494
2132, 4009, 4010, 4008, 4007, 4067, 4068, 4066, 4065
2133, 4010, 2325, 2326, 4008, 4068, 2354, 2355, 4066
2134, 1467, 4011, 4009, 1466, 1496, 4069, 4067, 1495
2135, 4011, 4012, 4010, 4009, 4069, 4070, 4068, 4067
2136, 4012, 2324, 2325, 4010, 4070, 2353, 2354, 4068
2137, 1468, 4013, 4011, 1467, 1497, 4071, 4069, 1496
2138, 4013, 4014, 4012, 4011, 4071, 4072, 4070, 4069
2139, 4014, 2323, 2324, 4012, 4072, 2352, 2353, 4070
2140, 1469, 4015, 4013, 1468, 1498, 4073, 4071, 1497
2141, 4015, 4016, 4014, 4013, 4073, 4074, 4072, 4071
2142, 4016, 2322, 2323, 4014, 4074, 2351, 2352, 4072
2143, 1470, 4017, 4015, 1469, 1499, 4075, 4073, 1498
2144, 4017, 4018, 4016, 4015, 4075, 4076, 4074, 4073
2145, 4018, 2321, 2322, 4016, 4076, 2350, 2351, 4074
2146, 1471, 4019, 4017, 1470, 1500, 4077, 4075, 1499
2147, 4019, 4020, 4018, 4017, 4077, 4078, 4076, 4075
2148, 4020, 2320, 2321, 4018, 4078, 2349, 2350, 4076
2149, 1472, 4021, 4019, 1471, 1501, 4079, 4077, 1500
2150, 4021, 4022, 4020, 4019, 4079, 4080, 4078, 4077
2151, 4022, 2319, 2320, 4020, 4080, 2348, 2349, 4078
2152, 1473, 4023, 4021, 1472, 1502, 4081, 4079, 1501
2153, 4023, 4024, 4022, 4021, 4081, 4082, 4080, 4079
2154, 4024, 2318, 2319, 4022, 4082, 2347, 2348, 4080
2155, 1474, 4025, 4023, 1473, 1503, 4083, 4081, 1502
2156, 4025, 4026, 4024, 4023, 4083, 4084, 4082, 4081
2157, 4026, 2317, 2318, 4024, 4084, 2346, 2347, 4082
2158, 1475, 4027, 4025, 1474, 1504, 4085, 4083, 1503
2159, 4027, 4028, 4026, 4025, 4085, 4086, 4084, 4083
2160, 4028, 2316, 2317, 4026, 4086, 2345, 2346, 4084
2161, 1476, 4029, 4027, 1475, 1505, 4087, 4085, 1504
2162, 4029, 4030, 4028, 4027, 4087, 4088, 4086, 4085
2163, 4030, 2315, 2316, 4028, 4088, 2344, 2345, 4086
2164, 1477, 4031, 4029, 1476, 1506, 4089, 4087, 1505
2165, 4031, 4032, 4030, 4029, 4089, 4090, 4088, 4087
2166, 4032, 2314, 2315, 4030, 4090, 2343, 2344, 4088
2167, 1478, 4033, 4031, 1477, 1507, 4091, 4089, 1506
2168, 4033, 4034, 4032, 4031, 4091, 4092, 4090, 4089
2169, 4034, 2313, 2314, 4032, 4092, 2342, 2343, 4090
2170, 1479, 4035, 4033, 1478, 1508, 4093, 4091, 1507
2171, 4035, 4036, 4034, 4033, 4093, 4094, 4092, 4091
2172, 4036, 2312, 2313, 4034, 4094, 2341, 2342, 4092
2173, 1480, 4037, 4035, 1479, 1509, 4095, 4093, 1508
2174, 4037, 4038, 4036, 4035, 4095, 4096, 4094, 4093
2175, 4038, 2311, 2312, 4036, 4096, 2340, 2341, 4094
2176, 1481, 4039, 4037, 1480, 1510, 4097, 4095, 1509
2177, 4039, 4040, 4038, 4037, 4097, 4098, 4096, 4095
2178, 4040, 2310, 2311, 4038, 4098, 2339, 2340, 4096
2179, 1482, 4041, 4039, 1481, 1511, 4099, 4097, 1510
2180, 4041, 4042, 4040, 4039, 4099, 4100, 4098, 4097
2181, 4042, 2309, 2310, 4040, 4100, 2338, 2339, 4098
2182, 1483, 4043, 4041, 1482, 1512, 4101, 4099, 1511
2183, 4043, 4044, 4042, 4041, 4101, 4102, 4100, 4099
2184, 4044, 2308, 2309, 4042, 4102, 2337, 2338, 4100
2185, 1484, 4045, 4043, 1483, 1513, 4103, 4101, 1512
2186, 4045, 4046, 4044, 4043, 4103, 4104, 4102, 4101
2187, 4046, 2307, 2308, 4044, 4104, 2336, 2337, 4102
2188, 1485, 4047, 4045, 1484, 1514, 4105, 4103, 1513
2189, 4047, 4048, 4046, 4045, 4105, 4106, 4104, 4103
2190, 4048, 2306, 2307, 4046, 4106, 2335, 2336, 4104
2191, 1486, 4049, 4047, 1485, 1515, 4107, 4105, 1514
2192, 4049, 4050, 4048, 4047, 4107, 4108, 4106, 4105
2193, 4050, 2305, 2306, 4048, 4108, 2334, 2335, 4106
2194, 1487, 4051, 4049, 1486, 1516, 4109, 4107, 1515
2195, 4051, 4052, 4050, 4049, 4109, 4110, 4108, 4107
2196, 4052, 2304, 2305, 4050, 4110, 2333, 2334, 4108
2197, 1488, 4053, 4051, 1487, 1517, 4111, 4109, 1516
2198, 4053, 4054, 4052, 4051, 4111, 4112, 4110, 4109
2199, 4054, 2303, 2304, 4052, 4112, 2332, 2333, 4110
2200, 1489, 4055, 4053, 1488, 1518, 4113, 4111, 1517
2201, 4055, 4056, 4054, 4053, 4113, 4114, 4112, 4111
2202, 4056, 2302, 2303, 4054, 4114, 2331, 2332, 4112
2203,  238, 1025, 4055, 1489,  237, 1027, 4113, 1518
2204, 1025, 1026, 4056, 4055, 1027, 1028, 4114, 4113
2205, 1026,  209, 2302, 4056, 1028,  210, 2331, 4114
2206, 1490, 4057,  580,   89, 1519, 4115,  579,   88
2207, 4057, 4058,  551,  580, 4115, 4116,  550,  579
2208, 4058, 2359,   39,  551, 4116, 2388,   38,  550
2209, 1491, 4059, 4057, 1490, 1520, 4117, 4115, 1519
2210, 4059, 4060, 4058, 4057, 4117, 4118, 4116, 4115
2211, 4060, 2358, 2359, 4058, 4118, 2387, 2388, 4116
2212, 1492, 4061, 4059, 1491, 1521, 4119, 4117, 1520
2213, 4061, 4062, 4060, 4059, 4119, 4120, 4118, 4117
2214, 4062, 2357, 2358, 4060, 4120, 2386, 2387, 4118
2215, 1493, 4063, 4061, 1492, 1522, 4121, 4119, 1521
2216, 4063, 4064, 4062, 4061, 4121, 4122, 4120, 4119
2217, 4064, 2356, 2357, 4062, 4122, 2385, 2386, 4120
2218, 1494, 4065, 4063, 1493, 1523, 4123, 4121, 1522
2219, 4065, 4066, 4064, 4063, 4123, 4124, 4122, 4121
2220, 4066, 2355, 2356, 4064, 4124, 2384, 2385, 4122
2221, 1495, 4067, 4065, 1494, 1524, 4125, 4123, 1523
2222, 4067, 4068, 4066, 4065, 4125, 4126, 4124, 4123
2223, 4068, 2354, 2355, 4066, 4126, 2383, 2384, 4124
2224, 1496, 4069, 4067, 1495, 1525, 4127, 4125, 1524
2225, 4069, 4070, 4068, 4067, 4127, 4128, 4126, 4125
2226, 4070, 2353, 2354, 4068, 4128, 2382, 2383, 4126
2227, 1497, 4071, 4069, 1496, 1526, 4129, 4127, 1525
2228, 4071, 4072, 4070, 4069, 4129, 4130, 4128, 4127
2229, 4072, 2352, 2353, 4070, 4130, 2381, 2382, 4128
2230, 1498, 4073, 4071, 1497, 1527, 4131, 4129, 1526
2231, 4073, 4074, 4072, 4071, 4131, 4132, 4130, 4129
2232, 4074, 2351, 2352, 4072, 4132, 2380, 2381, 4130
2233, 1499, 4075, 4073, 1498, 1528, 4133, 4131, 1527
2234, 4075, 4076, 4074, 4073, 4133, 4134, 4132, 4131
2235, 4076, 2350, 2351, 4074, 4134, 2379, 2380, 4132
2236, 1500, 4077, 4075, 1499, 1529, 4135, 4133, 1528
2237, 4077, 4078, 4076, 4075, 4135, 4136, 4134, 4133
2238, 4078, 2349, 2350, 4076, 4136, 2378, 2379, 4134
2239, 1501, 4079, 4077, 1500, 1530, 4137, 4135, 1529
2240, 4079, 4080, 4078, 4077, 4137, 4138, 4136, 4135
2241, 4080, 2348, 2349, 4078, 4138, 2377, 2378, 4136
2242, 1502, 4081, 4079, 1501, 1531, 4139, 4137, 1530
2243, 4081, 4082, 4080, 4079, 4139, 4140, 4138, 4137
2244, 4082, 2347, 2348, 4080, 4140, 2376, 2377, 4138
2245, 1503, 4083, 4081, 1502, 1532, 4141, 4139, 1531
2246, 4083, 4084, 4082, 4081, 4141, 4142, 4140, 4139
2247, 4084, 2346, 2347, 4082, 4142, 2375, 2376, 4140
2248, 1504, 4085, 4083, 1503, 1533, 4143, 4141, 1532
2249, 4085, 4086, 4084, 4083, 4143, 4144, 4142, 4141
2250, 4086, 2345, 2346, 4084, 4144, 2374, 2375, 4142
2251, 1505, 4087, 4085, 1504, 1534, 4145, 4143, 1533
2252, 4087, 4088, 4086, 4085, 4145, 4146, 4144, 4143
2253, 4088, 2344, 2345, 4086, 4146, 2373, 2374, 4144
2254, 1506, 4089, 4087, 1505, 1535, 4147, 4145, 1534
2255, 4089, 4090, 4088, 4087, 4147, 4148, 4146, 4145
2256, 4090, 2343, 2344, 4088, 4148, 2372, 2373, 4146
2257, 1507, 4091, 4089, 1506, 1536, 4149, 4147, 1535
2258, 4091, 4092, 4090, 4089, 4149, 4150, 4148, 4147
2259, 4092, 2342, 2343, 4090, 4150, 2371, 2372, 4148
2260, 1508, 4093, 4091, 1507, 1537, 4151, 4149, 1536
2261, 4093, 4094, 4092, 4091, 4151, 4152, 4150, 4149
2262, 4094, 2341, 2342, 4092, 4152, 2370, 2371, 4150
2263, 1509, 4095, 4093, 1508, 1538, 4153, 4151, 1537
2264, 4095, 4096, 4094, 4093, 4153, 4154, 4152, 4151
2265, 4096, 2340, 2341, 4094, 4154, 2369, 2370, 4152
2266, 1510, 4097, 4095, 1509, 1539, 4155, 4153, 1538
2267, 4097, 4098, 4096, 4095, 4155, 4156, 4154, 4153
2268, 4098, 2339, 2340, 4096, 4156, 2368, 2369, 4154
2269, 1511, 4099, 4097, 1510, 1540, 4157, 4155, 1539
2270, 4099, 4100, 4098, 4097, 4157, 4158, 4156, 4155
2271, 4100, 2338, 2339, 4098, 4158, 2367, 2368, 4156
2272, 1512, 4101, 4099, 1511, 1541, 4159, 4157, 1540
2273, 4101, 4102, 4100, 4099, 4159, 4160, 4158, 4157
2274, 4102, 2337, 2338, 4100, 4160, 2366, 2367, 4158
2275, 1513, 4103, 4101, 1512, 1542, 4161, 4159, 1541
2276, 4103, 4104, 4102, 4101, 4161, 4162, 4160, 4159
2277, 4104, 2336, 2337, 4102, 4162, 2365, 2366, 4160
2278, 1514, 4105, 4103, 1513, 1543, 4163, 4161, 1542
2279, 4105, 4106, 4104, 4103, 4163, 4164, 4162, 4161
2280, 4106, 2335, 2336, 4104, 4164, 2364, 2365, 4162
2281, 1515, 4107, 4105, 1514, 1544, 4165, 4163, 1543
2282, 4107, 4108, 4106, 4105, 4165, 4166, 4164, 4163
2283, 4108, 2334, 2335, 4106, 4166, 2363, 2364, 4164
2284, 1516, 4109, 4107, 1515, 1545, 4167, 4165, 1544
2285, 4109, 4110, 4108, 4107, 4167, 4168, 4166, 4165
2286, 4110, 2333, 2334, 4108, 4168, 2362, 2363, 4166
2287, 1517, 4111, 4109, 1516, 1546, 4169, 4167, 1545
2288, 4111, 4112, 4110, 4109, 4169, 4170, 4168, 4167
2289, 4112, 2332, 2333, 4110, 4170, 2361, 2362, 4168
2290, 1518, 4113, 4111, 1517, 1547, 4171, 4169, 1546
2291, 4113, 4114, 4112, 4111, 4171, 4172, 4170, 4169
2292, 4114, 2331, 2332, 4112, 4172, 2360, 2361, 4170
2293,  237, 1027, 4113, 1518,  236, 1029, 4171, 1547
2294, 1027, 1028, 4114, 4113, 1029, 1030, 4172, 4171
2295, 1028,  210, 2331, 4114, 1030,  211, 2360, 4172
2296, 1519, 4115,  579,   88, 1548, 4173,  578,   87
2297, 4115, 4116,  550,  579, 4173, 4174,  549,  578
2298, 4116, 2388,   38,  550, 4174, 2417,   37,  549
2299, 1520, 4117, 4115, 1519, 1549, 4175, 4173, 1548
2300, 4117, 4118, 4116, 4115, 4175, 4176, 4174, 4173
2301, 4118, 2387, 2388, 4116, 4176, 2416, 2417, 4174
2302, 1521, 4119, 4117, 1520, 1550, 4177, 4175, 1549
2303, 4119, 4120, 4118, 4117, 4177, 4178, 4176, 4175
2304, 4120, 2386, 2387, 4118, 4178, 2415, 2416, 4176
2305, 1522, 4121, 4119, 1521, 1551, 4179, 4177, 1550
2306, 4121, 4122, 4120, 4119, 4179, 4180, 4178, 4177
2307, 4122, 2385, 2386, 4120, 4180, 2414, 2415, 4178
2308, 1523, 4123, 4121, 1522, 1552, 4181, 4179, 1551
2309, 4123, 4124, 4122, 4121, 4181, 4182, 4180, 4179
2310, 4124, 2384, 2385, 4122, 4182, 2413, 2414, 4180
2311, 1524, 4125, 4123, 1523, 1553, 4183, 4181, 1552
2312, 4125, 4126, 4124, 4123, 4183, 4184, 4182, 4181
2313, 4126, 2383, 2384, 4124, 4184, 2412, 2413, 4182
2314, 1525, 4127, 4125, 1524, 1554, 4185, 4183, 1553
2315, 4127, 4128, 4126, 4125, 4185, 4186, 4184, 4183
2316, 4128, 2382, 2383, 4126, 4186, 2411, 2412, 4184
2317, 1526, 4129, 4127, 1525, 1555, 4187, 4185, 1554
2318, 4129, 4130, 4128, 4127, 4187, 4188, 4186, 4185
2319, 4130, 2381, 2382, 4128, 4188, 2410, 2411, 4186
2320, 1527, 4131, 4129, 1526, 1556, 4189, 4187, 1555
2321, 4131, 4132, 4130, 4129, 4189, 4190, 4188, 4187
2322, 4132, 2380, 2381, 4130, 4190, 2409, 2410, 4188
2323, 1528, 4133, 4131, 1527, 1557, 4191, 4189, 1556
2324, 4133, 4134, 4132, 4131, 4191, 4192, 4190, 4189
2325, 4134, 2379, 2380, 4132, 4192, 2408, 2409, 4190
2326, 1529, 4135, 4133, 1528, 1558, 4193, 4191, 1557
2327, 4135, 4136, 4134, 4133, 4193, 4194, 4192, 4191
2328, 4136, 2378, 2379, 4134, 4194, 2407, 2408, 4192
2329, 1530, 4137, 4135, 1529, 1559, 4195, 4193, 1558
2330, 4137, 4138, 4136, 4135, 4195, 4196, 4194, 4193
2331, 4138, 2377, 2378, 4136, 4196, 2406, 2407, 4194
2332, 1531, 4139, 4137, 1530, 1560, 4197, 4195, 1559
2333, 4139, 4140, 4138, 4137, 4197, 4198, 4196, 4195
2334, 4140, 2376, 2377, 4138, 4198, 2405, 2406, 4196
2335, 1532, 4141, 4139, 1531, 1561, 4199, 4197, 1560
2336, 4141, 4142, 4140, 4139, 4199, 4200, 4198, 4197
2337, 4142, 2375, 2376, 4140, 4200, 2404, 2405, 4198
2338, 1533, 4143, 4141, 1532, 1562, 4201, 4199, 1561
2339, 4143, 4144, 4142, 4141, 4201, 4202, 4200, 4199
2340, 4144, 2374, 2375, 4142, 4202, 2403, 2404, 4200
2341, 1534, 4145, 4143, 1533, 1563, 4203, 4201, 1562
2342, 4145, 4146, 4144, 4143, 4203, 4204, 4202, 4201
2343, 4146, 2373, 2374, 4144, 4204, 2402, 2403, 4202
2344, 1535, 4147, 4145, 1534, 1564, 4205, 4203, 1563
2345, 4147, 4148, 4146, 4145, 4205, 4206, 4204, 4203
2346, 4148, 2372, 2373, 4146, 4206, 2401, 2402, 4204
2347, 1536, 4149, 4147, 1535, 1565, 4207, 4205, 1564
2348, 4149, 4150, 4148, 4147, 4207, 4208, 4206, 4205
2349, 4150, 2371, 2372, 4148, 4208, 2400, 2401, 4206
2350, 1537, 4151, 4149, 1536, 1566, 4209, 4207, 1565
2351, 4151, 4152, 4150, 4149, 4209, 4210, 4208, 4207
2352, 4152, 2370, 2371, 4150, 4210, 2399, 2400, 4208
2353, 1538, 4153, 4151, 1537, 1567, 4211, 4209, 1566
2354, 4153, 4154, 4152, 4151, 4211, 4212, 4210, 4209
2355, 4154, 2369, 2370, 4152, 4212, 2398, 2399, 4210
2356, 1539, 4155, 4153, 1538, 1568, 4213, 4211, 1567
2357, 4155, 4156, 4154, 4153, 4213, 4214, 4212, 4211
2358, 4156, 2368, 2369, 4154, 4214, 2397, 2398, 4212
2359, 1540, 4157, 4155, 1539, 1569, 4215, 4213, 1568
2360, 4157, 4158, 4156, 4155, 4215, 4216, 4214, 4213
2361, 4158, 2367, 2368, 4156, 4216, 2396, 2397, 4214
2362, 1541, 4159, 4157, 1540, 1570, 4217, 4215, 1569
2363, 4159, 4160, 4158, 4157, 4217, 4218, 4216, 4215
2364, 4160, 2366, 2367, 4158, 4218, 2395, 2396, 4216
2365, 1542, 4161, 4159, 1541, 1571, 4219, 4217, 1570
2366, 4161, 4162, 4160, 4159, 4219, 4220, 4218, 4217
2367, 4162, 2365, 2366, 4160, 4220, 2394, 2395, 4218
2368, 1543, 4163, 4161, 1542, 1572, 4221, 4219, 1571
2369, 4163, 4164, 4162, 4161, 4221, 4222, 4220, 4219
2370, 4164, 2364, 2365, 4162, 4222, 2393, 2394, 4220
2371, 1544, 4165, 4163, 1543, 1573, 4223, 4221, 1572
2372, 4165, 4166, 4164, 4163, 4223, 4224, 4222, 4221
2373, 4166, 2363, 2364, 4164, 4224, 2392, 2393, 4222
2374, 1545, 4167, 4165, 1544, 1574, 4225, 4223, 1573
2375, 4167, 4168, 4166, 4165, 4225, 4226, 4224, 4223
2376, 4168, 2362, 2363, 4166, 4226, 2391, 2392, 4224
2377, 1546, 4169, 4167, 1545, 1575, 4227, 4225, 1574
2378, 4169, 4170, 4168, 4167, 4227, 4228, 4226, 4225
2379, 4170, 2361, 2362, 4168, 4228, 2390, 2391, 4226
2380, 1547, 4171, 4169, 1546, 1576, 4229, 4227, 1575
2381, 4171, 4172, 4170, 4169, 4229, 4230, 4228, 4227
2382, 4172, 2360, 2361, 4170, 4230, 2389, 2390, 4228
2383,  236, 1029, 4171, 1547,  235, 1031, 4229, 1576
2384, 1029, 1030, 4172, 4171, 1031, 1032, 4230, 4229
2385, 1030,  211, 2360, 4172, 1032,  212, 2389, 4230
2386, 1548, 4173,  578,   87, 1577, 4231,  577,   86
2387, 4173, 4174,  549,  578, 4231, 4232,  548,  577
2388, 4174, 2417,   37,  549, 4232, 2446,   36,  548
2389, 1549, 4175, 4173, 1548, 1578, 4233, 4231, 1577
2390, 4175, 4176, 4174, 4173, 4233, 4234, 4232, 4231
2391, 4176, 2416, 2417, 4174, 4234, 2445, 2446, 4232
2392, 1550, 4177, 4175, 1549, 1579, 4235, 4233, 1578
2393, 4177, 4178, 4176, 4175, 4235, 4236, 4234, 4233
2394, 4178, 2415, 2416, 4176, 4236, 2444, 2445, 4234
2395, 1551, 4179, 4177, 1550, 1580, 4237, 4235, 1579
2396, 4179, 4180, 4178, 4177, 4237, 4238, 4236, 4235
2397, 4180, 2414, 2415, 4178, 4238, 2443, 2444, 4236
2398, 1552, 4181, 4179, 1551, 1581, 4239, 4237, 1580
2399, 4181, 4182, 4180, 4179, 4239, 4240, 4238, 4237
2400, 4182, 2413, 2414, 4180, 4240, 2442, 2443, 4238
2401, 1553, 4183, 4181, 1552, 1582, 4241, 4239, 1581
2402, 4183, 4184, 4182, 4181, 4241, 4242, 4240, 4239
2403, 4184, 2412, 2413, 4182, 4242, 2441, 2442, 4240
2404, 1554, 4185, 4183, 1553, 1583, 4243, 4241, 1582
2405, 4185, 4186, 4184, 4183, 4243, 4244, 4242, 4241
2406, 4186, 2411, 2412, 4184, 4244, 2440, 2441, 4242
2407, 1555, 4187, 4185, 1554, 1584, 4245, 4243, 1583
2408, 4187, 4188, 4186, 4185, 4245, 4246, 4244, 4243
2409, 4188, 2410, 2411, 4186, 4246, 2439, 2440, 4244
2410, 1556, 4189, 4187, 1555, 1585, 4247, 4245, 1584
2411, 4189, 4190, 4188, 4187, 4247, 4248, 4246, 4245
2412, 4190, 2409, 2410, 4188, 4248, 2438, 2439, 4246
2413, 1557, 4191, 4189, 1556, 1586, 4249, 4247, 1585
2414, 4191, 4192, 4190, 4189, 4249, 4250, 4248, 4247
2415, 4192, 2408, 2409, 4190, 4250, 2437, 2438, 4248
2416, 1558, 4193, 4191, 1557, 1587, 4251, 4249, 1586
2417, 4193, 4194, 4192, 4191, 4251, 4252, 4250, 4249
2418, 4194, 2407, 2408, 4192, 4252, 2436, 2437, 4250
2419, 1559, 4195, 4193, 1558, 1588, 4253, 4251, 1587
2420, 4195, 4196, 4194, 4193, 4253, 4254, 4252, 4251
2421, 4196, 2406, 2407, 4194, 4254, 2435, 2436, 4252
2422, 1560, 4197, 4195, 1559, 1589, 4255, 4253, 1588
2423, 4197, 4198, 4196, 4195, 4255, 4256, 4254, 4253
2424, 4198, 2405, 2406, 4196, 4256, 2434, 2435, 4254
2425, 1561, 4199, 4197, 1560, 1590, 4257, 4255, 1589
2426, 4199, 4200, 4198, 4197, 4257, 4258, 4256, 4255
2427, 4200, 2404, 2405, 4198, 4258, 2433, 2434, 4256
2428, 1562, 4201, 4199, 1561, 1591, 4259, 4257, 1590
2429, 4201, 4202, 4200, 4199, 4259, 4260, 4258, 4257
2430, 4202, 2403, 2404, 4200, 4260, 2432, 2433, 4258
2431, 1563, 4203, 4201, 1562, 1592, 4261, 4259, 1591
2432, 4203, 4204, 4202, 4201, 4261, 4262, 4260, 4259
2433, 4204, 2402, 2403, 4202, 4262, 2431, 2432, 4260
2434, 1564, 4205, 4203, 1563, 1593, 4263, 4261, 1592
2435, 4205, 4206, 4204, 4203, 4263, 4264, 4262, 4261
2436, 4206, 2401, 2402, 4204, 4264, 2430, 2431, 4262
2437, 1565, 4207, 4205, 1564, 1594, 4265, 4263, 1593
2438, 4207, 4208, 4206, 4205, 4265, 4266, 4264, 4263
2439, 4208, 2400, 2401, 4206, 4266, 2429, 2430, 4264
2440, 1566, 4209, 4207, 1565, 1595, 4267, 4265, 1594
2441, 4209, 4210, 4208, 4207, 4267, 4268, 4266, 4265
2442, 4210, 2399, 2400, 4208, 4268, 2428, 2429, 4266
2443, 1567, 4211, 4209, 1566, 1596, 4269, 4267, 1595
2444, 4211, 4212, 4210, 4209, 4269, 4270, 4268, 4267
2445, 4212, 2398, 2399, 4210, 4270, 2427, 2428, 4268
2446, 1568, 4213, 4211, 1567, 1597, 4271, 4269, 1596
2447, 4213, 4214, 4212, 4211, 4271, 4272, 4270, 4269
2448, 4214, 2397, 2398, 4212, 4272, 2426, 2427, 4270
2449, 1569, 4215, 4213, 1568, 1598, 4273, 4271, 1597
2450, 4215, 4216, 4214, 4213, 4273, 4274, 4272, 4271
2451, 4216, 2396, 2397, 4214, 4274, 2425, 2426, 4272
2452, 1570, 4217, 4215, 1569, 1599, 4275, 4273, 1598
2453, 4217, 4218, 4216, 4215, 4275, 4276, 4274, 4273
2454, 4218, 2395, 2396, 4216, 4276, 2424, 2425, 4274
2455, 1571, 4219, 4217, 1570, 1600, 4277, 4275, 1599
2456, 4219, 4220, 4218, 4217, 4277, 4278, 4276, 4275
2457, 4220, 2394, 2395, 4218, 4278, 2423, 2424, 4276
2458, 1572, 4221, 4219, 1571, 1601, 4279, 4277, 1600
2459, 4221, 4222, 4220, 4219, 4279, 4280, 4278, 4277
2460, 4222, 2393, 2394, 4220, 4280, 2422, 2423, 4278
2461, 1573, 4223, 4221, 1572, 1602, 4281, 4279, 1601
2462, 4223, 4224, 4222, 4221, 4281, 4282, 4280, 4279
2463, 4224, 2392, 2393, 4222, 4282, 2421, 2422, 4280
2464, 1574, 4225, 4223, 1573, 1603, 4283, 4281, 1602
2465, 4225, 4226, 4224, 4223, 4283, 4284, 4282, 4281
2466, 4226, 2391, 2392, 4224, 4284, 2420, 2421, 4282
2467, 1575, 4227, 4225, 1574, 1604, 4285, 4283, 1603
2468, 4227, 4228, 4226, 4225, 4285, 4286, 4284, 4283
2469, 4228, 2390, 2391, 4226, 4286, 2419, 2420, 4284
2470, 1576, 4229, 4227, 1575, 1605, 4287, 4285, 1604
2471, 4229, 4230, 4228, 4227, 4287, 4288, 4286, 4285
2472, 4230, 2389, 2390, 4228, 4288, 2418, 2419, 4286
2473,  235, 1031, 4229, 1576,  234, 1033, 4287, 1605
2474, 1031, 1032, 4230, 4229, 1033, 1034, 4288, 4287
2475, 1032,  212, 2389, 4230, 1034,  213, 2418, 4288
2476, 1577, 4231,  577,   86, 1606, 4289,  576,   85
2477, 4231, 4232,  548,  577, 4289, 4290,  547,  576
2478, 4232, 2446,   36,  548, 4290, 2475,   35,  547
2479, 1578, 4233, 4231, 1577, 1607, 4291, 4289, 1606
2480, 4233, 4234, 4232, 4231, 4291, 4292, 4290, 4289
2481, 4234, 2445, 2446, 4232, 4292, 2474, 2475, 4290
2482, 1579, 4235, 4233, 1578, 1608, 4293, 4291, 1607
2483, 4235, 4236, 4234, 4233, 4293, 4294, 4292, 4291
2484, 4236, 2444, 2445, 4234, 4294, 2473, 2474, 4292
2485, 1580, 4237, 4235, 1579, 1609, 4295, 4293, 1608
2486, 4237, 4238, 4236, 4235, 4295, 4296, 4294, 4293
2487, 4238, 2443, 2444, 4236, 4296, 2472, 2473, 4294
2488, 1581, 4239, 4237, 1580, 1610, 4297, 4295, 1609
2489, 4239, 4240, 4238, 4237, 4297, 4298, 4296, 4295
2490, 4240, 2442, 2443, 4238, 4298, 2471, 2472, 4296
2491, 1582, 4241, 4239, 1581, 1611, 4299, 4297, 1610
2492, 4241, 4242, 4240, 4239, 4299, 4300, 4298, 4297
2493, 4242, 2441, 2442, 4240, 4300, 2470, 2471, 4298
2494, 1583, 4243, 4241, 1582, 1612, 4301, 4299, 1611
2495, 4243, 4244, 4242, 4241, 4301, 4302, 4300, 4299
2496, 4244, 2440, 2441, 4242, 4302, 2469, 2470, 4300
2497, 1584, 4245, 4243, 1583, 1613, 4303, 4301, 1612
2498, 4245, 4246, 4244, 4243, 4303, 4304, 4302, 4301
2499, 4246, 2439, 2440, 4244, 4304, 2468, 2469, 4302
2500, 1585, 4247, 4245, 1584, 1614, 4305, 4303, 1613
2501, 4247, 4248, 4246, 4245, 4305, 4306, 4304, 4303
2502, 4248, 2438, 2439, 4246, 4306, 2467, 2468, 4304
2503, 1586, 4249, 4247, 1585, 1615, 4307, 4305, 1614
2504, 4249, 4250, 4248, 4247, 4307, 4308, 4306, 4305
2505, 4250, 2437, 2438, 4248, 4308, 2466, 2467, 4306
2506, 1587, 4251, 4249, 1586, 1616, 4309, 4307, 1615
2507, 4251, 4252, 4250, 4249, 4309, 4310, 4308, 4307
2508, 4252, 2436, 2437, 4250, 4310, 2465, 2466, 4308
2509, 1588, 4253, 4251, 1587, 1617, 4311, 4309, 1616
2510, 4253, 4254, 4252, 4251, 4311, 4312, 4310, 4309
2511, 4254, 2435, 2436, 4252, 4312, 2464, 2465, 4310
2512, 1589, 4255, 4253, 1588, 1618, 4313, 4311, 1617
2513, 4255, 4256, 4254, 4253, 4313, 4314, 4312, 4311
2514, 4256, 2434, 2435, 4254, 4314, 2463, 2464, 4312
2515, 1590, 4257, 4255, 1589, 1619, 4315, 4313, 1618
2516, 4257, 4258, 4256, 4255, 4315, 4316, 4314, 4313
2517, 4258, 2433, 2434, 4256, 4316, 2462, 2463, 4314
2518, 1591, 4259, 4257, 1590, 1620, 4317, 4315, 1619
2519, 4259, 4260, 4258, 4257, 4317, 4318, 4316, 4315
2520, 4260, 2432, 2433, 4258, 4318, 2461, 2462, 4316
2521, 1592, 4261, 4259, 1591, 1621, 4319, 4317, 1620
2522, 4261, 4262, 4260, 4259, 4319, 4320, 4318, 4317
2523, 4262, 2431, 2432, 4260, 4320, 2460, 2461, 4318
2524, 1593, 4263, 4261, 1592, 1622, 4321, 4319, 1621
2525, 4263, 4264, 4262, 4261, 4321, 4322, 4320, 4319
2526, 4264, 2430, 2431, 4262, 4322, 2459, 2460, 4320
2527, 1594, 4265, 4263, 1593, 1623, 4323, 4321, 1622
2528, 4265, 4266, 4264, 4263, 4323, 4324, 4322, 4321
2529, 4266, 2429, 2430, 4264, 4324, 2458, 2459, 4322
2530, 1595, 4267, 4265, 1594, 1624, 4325, 4323, 1623
2531, 4267, 4268, 4266, 4265, 4325, 4326, 4324, 4323
2532, 4268, 2428, 2429, 4266, 4326, 2457, 2458, 4324
2533, 1596, 4269, 4267, 1595, 1625, 4327, 4325, 1624
2534, 4269, 4270, 4268, 4267, 4327, 4328, 4326, 4325
2535, 4270, 2427, 2428, 4268, 4328, 2456, 2457, 4326
2536, 1597, 4271, 4269, 1596, 1626, 4329, 4327, 1625
2537, 4271, 4272, 4270, 4269, 4329, 4330, 4328, 4327
2538, 4272, 2426, 2427, 4270, 4330, 2455, 2456, 4328
2539, 1598, 4273, 4271, 1597, 1627, 4331, 4329, 1626
2540, 4273, 4274, 4272, 4271, 4331, 4332, 4330, 4329
2541, 4274, 2425, 2426, 4272, 4332, 2454, 2455, 4330
2542, 1599, 4275, 4273, 1598, 1628, 4333, 4331, 1627
2543, 4275, 4276, 4274, 4273, 4333, 4334, 4332, 4331
2544, 4276, 2424, 2425, 4274, 4334, 2453, 2454, 4332
2545, 1600, 4277, 4275, 1599, 1629, 4335, 4333, 1628
2546, 4277, 4278, 4276, 4275, 4335, 4336, 4334, 4333
2547, 4278, 2423, 2424, 4276, 4336, 2452, 2453, 4334
2548, 1601, 4279, 4277, 1600, 1630, 4337, 4335, 1629
2549, 4279, 4280, 4278, 4277, 4337, 4338, 4336, 4335
2550, 4280, 2422, 2423, 4278, 4338, 2451, 2452, 4336
2551, 1602, 4281, 4279, 1601, 1631, 4339, 4337, 1630
2552, 4281, 4282, 4280, 4279, 4339, 4340, 4338, 4337
2553, 4282, 2421, 2422, 4280, 4340, 2450, 2451, 4338
2554, 1603, 4283, 4281, 1602, 1632, 4341, 4339, 1631
2555, 4283, 4284, 4282, 4281, 4341, 4342, 4340, 4339
2556, 4284, 2420, 2421, 4282, 4342, 2449, 2450, 4340
2557, 1604, 4285, 4283, 1603, 1633, 4343, 4341, 1632
2558, 4285, 4286, 4284, 4283, 4343, 4344, 4342, 4341
2559, 4286, 2419, 2420, 4284, 4344, 2448, 2449, 4342
2560, 1605, 4287, 4285, 1604, 1634, 4345, 4343, 1633
2561, 4287, 4288, 4286, 4285, 4345, 4346, 4344, 4343
2562, 4288, 2418, 2419, 4286, 4346, 2447, 2448, 4344
2563,  234, 1033, 4287, 1605,  233, 1035, 4345, 1634
2564, 1033, 1034, 4288, 4287, 1035, 1036, 4346, 4345
2565, 1034,  213, 2418, 4288, 1036,  214, 2447, 4346
2566, 1606, 4289,  576,   85, 1635, 4347,  575,   84
2567, 4289, 4290,  547,  576, 4347, 4348,  546,  575
2568, 4290, 2475,   35,  547, 4348, 2504,   34,  546
2569, 1607, 4291, 4289, 1606, 1636, 4349, 4347, 1635
2570, 4291, 4292, 4290, 4289, 4349, 4350, 4348, 4347
2571, 4292, 2474, 2475, 4290, 4350, 2503, 2504, 4348
2572, 1608, 4293, 4291, 1607, 1637, 4351, 4349, 1636
2573, 4293, 4294, 4292, 4291, 4351, 4352, 4350, 4349
2574, 4294, 2473, 2474, 4292, 4352, 2502, 2503, 4350
2575, 1609, 4295, 4293, 1608, 1638, 4353, 4351, 1637
2576, 4295, 4296, 4294, 4293, 4353, 4354, 4352, 4351
2577, 4296, 2472, 2473, 4294, 4354, 2501, 2502, 4352
2578, 1610, 4297, 4295, 1609, 1639, 4355, 4353, 1638
2579, 4297, 4298, 4296, 4295, 4355, 4356, 4354, 4353
2580, 4298, 2471, 2472, 4296, 4356, 2500, 2501, 4354
2581, 1611, 4299, 4297, 1610, 1640, 4357, 4355, 1639
2582, 4299, 4300, 4298, 4297, 4357, 4358, 4356, 4355
2583, 4300, 2470, 2471, 4298, 4358, 2499, 2500, 4356
2584, 1612, 4301, 4299, 1611, 1641, 4359, 4357, 1640
2585, 4301, 4302, 4300, 4299, 4359, 4360, 4358, 4357
2586, 4302, 2469, 2470, 4300, 4360, 2498, 2499, 4358
2587, 1613, 4303, 4301, 1612, 1642, 4361, 4359, 1641
2588, 4303, 4304, 4302, 4301, 4361, 4362, 4360, 4359
2589, 4304, 2468, 2469, 4302, 4362, 2497, 2498, 4360
2590, 1614, 4305, 4303, 1613, 1643, 4363, 4361, 1642
2591, 4305, 4306, 4304, 4303, 4363, 4364, 4362, 4361
2592, 4306, 2467, 2468, 4304, 4364, 2496, 2497, 4362
2593, 1615, 4307, 4305, 1614, 1644, 4365, 4363, 1643
2594, 4307, 4308, 4306, 4305, 4365, 4366, 4364, 4363
2595, 4308, 2466, 2467, 4306, 4366, 2495, 2496, 4364
2596, 1616, 4309, 4307, 1615, 1645, 4367, 4365, 1644
2597, 4309, 4310, 4308, 4307, 4367, 4368, 4366, 4365
2598, 4310, 2465, 2466, 4308, 4368, 2494, 2495, 4366
2599, 1617, 4311, 4309, 1616, 1646, 4369, 4367, 1645
2600, 4311, 4312, 4310, 4309, 4369, 4370, 4368, 4367
2601, 4312, 2464, 2465, 4310, 4370, 2493, 2494, 4368
2602, 1618, 4313, 4311, 1617, 1647, 4371, 4369, 1646
2603, 4313, 4314, 4312, 4311, 4371, 4372, 4370, 4369
2604, 4314, 2463, 2464, 4312, 4372, 2492, 2493, 4370
2605, 1619, 4315, 4313, 1618, 1648, 4373, 4371, 1647
2606, 4315, 4316, 4314, 4313, 4373, 4374, 4372, 4371
2607, 4316, 2462, 2463, 4314, 4374, 2491, 2492, 4372
2608, 1620, 4317, 4315, 1619, 1649, 4375, 4373, 1648
2609, 4317, 4318, 4316, 4315, 4375, 4376, 4374, 4373
2610, 4318, 2461, 2462, 4316, 4376, 2490, 2491, 4374
2611, 1621, 4319, 4317, 1620, 1650, 4377, 4375, 1649
2612, 4319, 4320, 4318, 4317, 4377, 4378, 4376, 4375
2613, 4320, 2460, 2461, 4318, 4378, 2489, 2490, 4376
2614, 1622, 4321, 4319, 1621, 1651, 4379, 4377, 1650
2615, 4321, 4322, 4320, 4319, 4379, 4380, 4378, 4377
2616, 4322, 2459, 2460, 4320, 4380, 2488, 2489, 4378
2617, 1623, 4323, 4321, 1622, 1652, 4381, 4379, 1651
2618, 4323, 4324, 4322, 4321, 4381, 4382, 4380, 4379
2619, 4324, 2458, 2459, 4322, 4382, 2487, 2488, 4380
2620, 1624, 4325, 4323, 1623, 1653, 4383, 4381, 1652
2621, 4325, 4326, 4324, 4323, 4383, 4384, 4382, 4381
2622, 4326, 2457, 2458, 4324, 4384, 2486, 2487, 4382
2623, 1625, 4327, 4325, 1624, 1654, 4385, 4383, 1653
2624, 4327, 4328, 4326, 4325, 4385, 4386, 4384, 4383
2625, 4328, 2456, 2457, 4326, 4386, 2485, 2486, 4384
2626, 1626, 4329, 4327, 1625, 1655, 4387, 4385, 1654
2627, 4329, 4330, 4328, 4327, 4387, 4388, 4386, 4385
2628, 4330, 2455, 2456, 4328, 4388, 2484, 2485, 4386
2629, 1627, 4331, 4329, 1626, 1656, 4389, 4387, 1655
2630, 4331, 4332, 4330, 4329, 4389, 4390, 4388, 4387
2631, 4332, 2454, 2455, 4330, 4390, 2483, 2484, 4388
2632, 1628, 4333, 4331, 1627, 1657, 4391, 4389, 1656
2633, 4333, 4334, 4332, 4331, 4391, 4392, 4390, 4389
2634, 4334, 2453, 2454, 4332, 4392, 2482, 2483, 4390
2635, 1629, 4335, 4333, 1628, 1658, 4393, 4391, 1657
2636, 4335, 4336, 4334, 4333, 4393, 4394, 4392, 4391
2637, 4336, 2452, 2453, 4334, 4394, 2481, 2482, 4392
2638, 1630, 4337, 4335, 1629, 1659, 4395, 4393, 1658
2639, 4337, 4338, 4336, 4335, 4395, 4396, 4394, 4393
2640, 4338, 2451, 2452, 4336, 4396, 2480, 2481, 4394
2641, 1631, 4339, 4337, 1630, 1660, 4397, 4395, 1659
2642, 4339, 4340, 4338, 4337, 4397, 4398, 4396, 4395
2643, 4340, 2450, 2451, 4338, 4398, 2479, 2480, 4396
2644, 1632, 4341, 4339, 1631, 1661, 4399, 4397, 1660
2645, 4341, 4342, 4340, 4339, 4399, 4400, 4398, 4397
2646, 4342, 2449, 2450, 4340, 4400, 2478, 2479, 4398
2647, 1633, 4343, 4341, 1632, 1662, 4401, 4399, 1661
2648, 4343, 4344, 4342, 4341, 4401, 4402, 4400, 4399
2649, 4344, 2448, 2449, 4342, 4402, 2477, 2478, 4400
2650, 1634, 4345, 4343, 1633, 1663, 4403, 4401, 1662
2651, 4345, 4346, 4344, 4343, 4403, 4404, 4402, 4401
2652, 4346, 2447, 2448, 4344, 4404, 2476, 2477, 4402
2653,  233, 1035, 4345, 1634,  232, 1037, 4403, 1663
2654, 1035, 1036, 4346, 4345, 1037, 1038, 4404, 4403
2655, 1036,  214, 2447, 4346, 1038,  215, 2476, 4404
2656, 1635, 4347,  575,   84, 1664, 4405,  574,   83
2657, 4347, 4348,  546,  575, 4405, 4406,  545,  574
2658, 4348, 2504,   34,  546, 4406, 2533,   33,  545
2659, 1636, 4349, 4347, 1635, 1665, 4407, 4405, 1664
2660, 4349, 4350, 4348, 4347, 4407, 4408, 4406, 4405
2661, 4350, 2503, 2504, 4348, 4408, 2532, 2533, 4406
2662, 1637, 4351, 4349, 1636, 1666, 4409, 4407, 1665
2663, 4351, 4352, 4350, 4349, 4409, 4410, 4408, 4407
2664, 4352, 2502, 2503, 4350, 4410, 2531, 2532, 4408
2665, 1638, 4353, 4351, 1637, 1667, 4411, 4409, 1666
2666, 4353, 4354, 4352, 4351, 4411, 4412, 4410, 4409
2667, 4354, 2501, 2502, 4352, 4412, 2530, 2531, 4410
2668, 1639, 4355, 4353, 1638, 1668, 4413, 4411, 1667
2669, 4355, 4356, 4354, 4353, 4413, 4414, 4412, 4411
2670, 4356, 2500, 2501, 4354, 4414, 2529, 2530, 4412
2671, 1640, 4357, 4355, 1639, 1669, 4415, 4413, 1668
2672, 4357, 4358, 4356, 4355, 4415, 4416, 4414, 4413
2673, 4358, 2499, 2500, 4356, 4416, 2528, 2529, 4414
2674, 1641, 4359, 4357, 1640, 1670, 4417, 4415, 1669
2675, 4359, 4360, 4358, 4357, 4417, 4418, 4416, 4415
2676, 4360, 2498, 2499, 4358, 4418, 2527, 2528, 4416
2677, 1642, 4361, 4359, 1641, 1671, 4419, 4417, 1670
2678, 4361, 4362, 4360, 4359, 4419, 4420, 4418, 4417
2679, 4362, 2497, 2498, 4360, 4420, 2526, 2527, 4418
2680, 1643, 4363, 4361, 1642, 1672, 4421, 4419, 1671
2681, 4363, 4364, 4362, 4361, 4421, 4422, 4420, 4419
2682, 4364, 2496, 2497, 4362, 4422, 2525, 2526, 4420
2683, 1644, 4365, 4363, 1643, 1673, 4423, 4421, 1672
2684, 4365, 4366, 4364, 4363, 4423, 4424, 4422, 4421
2685, 4366, 2495, 2496, 4364, 4424, 2524, 2525, 4422
2686, 1645, 4367, 4365, 1644, 1674, 4425, 4423, 1673
2687, 4367, 4368, 4366, 4365, 4425, 4426, 4424, 4423
2688, 4368, 2494, 2495, 4366, 4426, 2523, 2524, 4424
2689, 1646, 4369, 4367, 1645, 1675, 4427, 4425, 1674
2690, 4369, 4370, 4368, 4367, 4427, 4428, 4426, 4425
2691, 4370, 2493, 2494, 4368, 4428, 2522, 2523, 4426
2692, 1647, 4371, 4369, 1646, 1676, 4429, 4427, 1675
2693, 4371, 4372, 4370, 4369, 4429, 4430, 4428, 4427
2694, 4372, 2492, 2493, 4370, 4430, 2521, 2522, 4428
2695, 1648, 4373, 4371, 1647, 1677, 4431, 4429, 1676
2696, 4373, 4374, 4372, 4371, 4431, 4432, 4430, 4429
2697, 4374, 2491, 2492, 4372, 4432, 2520, 2521, 4430
2698, 1649, 4375, 4373, 1648, 1678, 4433, 4431, 1677
2699, 4375, 4376, 4374, 4373, 4433, 4434, 4432, 4431
2700, 4376, 2490, 2491, 4374, 4434, 2519, 2520, 4432
2701, 1650, 4377, 4375, 1649, 1679, 4435, 4433, 1678
2702, 4377, 4378, 4376, 4375, 4435, 4436, 4434, 4433
2703, 4378, 2489, 2490, 4376, 4436, 2518, 2519, 4434
2704, 1651, 4379, 4377, 1650, 1680, 4437, 4435, 1679
2705, 4379, 4380, 4378, 4377, 4437, 4438, 4436, 4435
2706, 4380, 2488, 2489, 4378, 4438, 2517, 2518, 4436
2707, 1652, 4381, 4379, 1651, 1681, 4439, 4437, 1680
2708, 4381, 4382, 4380, 4379, 4439, 4440, 4438, 4437
2709, 4382, 2487, 2488, 4380, 4440, 2516, 2517, 4438
2710, 1653, 4383, 4381, 1652, 1682, 4441, 4439, 1681
2711, 4383, 4384, 4382, 4381, 4441, 4442, 4440, 4439
2712, 4384, 2486, 2487, 4382, 4442, 2515, 2516, 4440
2713, 1654, 4385, 4383, 1653, 1683, 4443, 4441, 1682
2714, 4385, 4386, 4384, 4383, 4443, 4444, 4442, 4441
2715, 4386, 2485, 2486, 4384, 4444, 2514, 2515, 4442
2716, 1655, 4387, 4385, 1654, 1684, 4445, 4443, 1683
2717, 4387, 4388, 4386, 4385, 4445, 4446, 4444, 4443
2718, 4388, 2484, 2485, 4386, 4446, 2513, 2514, 4444
2719, 1656, 4389, 4387, 1655, 1685, 4447, 4445, 1684
2720, 4389, 4390, 4388, 4387, 4447, 4448, 4446, 4445
2721, 4390, 2483, 2484, 4388, 4448, 2512, 2513, 4446
2722, 1657, 4391, 4389, 1656, 1686, 4449, 4447, 1685
2723, 4391, 4392, 4390, 4389, 4449, 4450, 4448, 4447
2724, 4392, 2482, 2483, 4390, 4450, 2511, 2512, 4448
2725, 1658, 4393, 4391, 1657, 1687, 4451, 4449, 1686
2726, 4393, 4394, 4392, 4391, 4451, 4452, 4450, 4449
2727, 4394, 2481, 2482, 4392, 4452, 2510, 2511, 4450
2728, 1659, 4395, 4393, 1658, 1688, 4453, 4451, 1687
2729, 4395, 4396, 4394, 4393, 4453, 4454, 4452, 4451
2730, 4396, 2480, 2481, 4394, 4454, 2509, 2510, 4452
2731, 1660, 4397, 4395, 1659, 1689, 4455, 4453, 1688
2732, 4397, 4398, 4396, 4395, 4455, 4456, 4454, 4453
2733, 4398, 2479, 2480, 4396, 4456, 2508, 2509, 4454
2734, 1661, 4399, 4397, 1660, 1690, 4457, 4455, 1689
2735, 4399, 4400, 4398, 4397, 4457, 4458, 4456, 4455
2736, 4400, 2478, 2479, 4398, 4458, 2507, 2508, 4456
2737, 1662, 4401, 4399, 1661, 1691, 4459, 4457, 1690
2738, 4401, 4402, 4400, 4399, 4459, 4460, 4458, 4457
2739, 4402, 2477, 2478, 4400, 4460, 2506, 2507, 4458
2740, 1663, 4403, 4401, 1662, 1692, 4461, 4459, 1691
2741, 4403, 4404, 4402, 4401, 4461, 4462, 4460, 4459
2742, 4404, 2476, 2477, 4402, 4462, 2505, 2506, 4460
2743,  232, 1037, 4403, 1663,  231, 1039, 4461, 1692
2744, 1037, 1038, 4404, 4403, 1039, 1040, 4462, 4461
2745, 1038,  215, 2476, 4404, 1040,  216, 2505, 4462
2746, 1664, 4405,  574,   83, 1693, 4463,  573,   82
2747, 4405, 4406,  545,  574, 4463, 4464,  544,  573
2748, 4406, 2533,   33,  545, 4464, 2562,   32,  544
2749, 1665, 4407, 4405, 1664, 1694, 4465, 4463, 1693
2750, 4407, 4408, 4406, 4405, 4465, 4466, 4464, 4463
2751, 4408, 2532, 2533, 4406, 4466, 2561, 2562, 4464
2752, 1666, 4409, 4407, 1665, 1695, 4467, 4465, 1694
2753, 4409, 4410, 4408, 4407, 4467, 4468, 4466, 4465
2754, 4410, 2531, 2532, 4408, 4468, 2560, 2561, 4466
2755, 1667, 4411, 4409, 1666, 1696, 4469, 4467, 1695
2756, 4411, 4412, 4410, 4409, 4469, 4470, 4468, 4467
2757, 4412, 2530, 2531, 4410, 4470, 2559, 2560, 4468
2758, 1668, 4413, 4411, 1667, 1697, 4471, 4469, 1696
2759, 4413, 4414, 4412, 4411, 4471, 4472, 4470, 4469
2760, 4414, 2529, 2530, 4412, 4472, 2558, 2559, 4470
2761, 1669, 4415, 4413, 1668, 1698, 4473, 4471, 1697
2762, 4415, 4416, 4414, 4413, 4473, 4474, 4472, 4471
2763, 4416, 2528, 2529, 4414, 4474, 2557, 2558, 4472
2764, 1670, 4417, 4415, 1669, 1699, 4475, 4473, 1698
2765, 4417, 4418, 4416, 4415, 4475, 4476, 4474, 4473
2766, 4418, 2527, 2528, 4416, 4476, 2556, 2557, 4474
2767, 1671, 4419, 4417, 1670, 1700, 4477, 4475, 1699
2768, 4419, 4420, 4418, 4417, 4477, 4478, 4476, 4475
2769, 4420, 2526, 2527, 4418, 4478, 2555, 2556, 4476
2770, 1672, 4421, 4419, 1671, 1701, 4479, 4477, 1700
2771, 4421, 4422, 4420, 4419, 4479, 4480, 4478, 4477
2772, 4422, 2525, 2526, 4420, 4480, 2554, 2555, 4478
2773, 1673, 4423, 4421, 1672, 1702, 4481, 4479, 1701
2774, 4423, 4424, 4422, 4421, 4481, 4482, 4480, 4479
2775, 4424, 2524, 2525, 4422, 4482, 2553, 2554, 4480
2776, 1674, 4425, 4423, 1673, 1703, 4483, 4481, 1702
2777, 4425, 4426, 4424, 4423, 4483, 4484, 4482, 4481
2778, 4426, 2523, 2524, 4424, 4484, 2552, 2553, 4482
2779, 1675, 4427, 4425, 1674, 1704, 4485, 4483, 1703
2780, 4427, 4428, 4426, 4425, 4485, 4486, 4484, 4483
2781, 4428, 2522, 2523, 4426, 4486, 2551, 2552, 4484
2782, 1676, 4429, 4427, 1675, 1705, 4487, 4485, 1704
2783, 4429, 4430, 4428, 4427, 4487, 4488, 4486, 4485
2784, 4430, 2521, 2522, 4428, 4488, 2550, 2551, 4486
2785, 1677, 4431, 4429, 1676, 1706, 4489, 4487, 1705
2786, 4431, 4432, 4430, 4429, 4489, 4490, 4488, 4487
2787, 4432, 2520, 2521, 4430, 4490, 2549, 2550, 4488
2788, 1678, 4433, 4431, 1677, 1707, 4491, 4489, 1706
2789, 4433, 4434, 4432, 4431, 4491, 4492, 4490, 4489
2790, 4434, 2519, 2520, 4432, 4492, 2548, 2549, 4490
2791, 1679, 4435, 4433, 1678, 1708, 4493, 4491, 1707
2792, 4435, 4436, 4434, 4433, 4493, 4494, 4492, 4491
2793, 4436, 2518, 2519, 4434, 4494, 2547, 2548, 4492
2794, 1680, 4437, 4435, 1679, 1709, 4495, 4493, 1708
2795, 4437, 4438, 4436, 4435, 4495, 4496, 4494, 4493
2796, 4438, 2517, 2518, 4436, 4496, 2546, 2547, 4494
2797, 1681, 4439, 4437, 1680, 1710, 4497, 4495, 1709
2798, 4439, 4440, 4438, 4437, 4497, 4498, 4496, 4495
2799, 4440, 2516, 2517, 4438, 4498, 2545, 2546, 4496
2800, 1682, 4441, 4439, 1681, 1711, 4499, 4497, 1710
2801, 4441, 4442, 4440, 4439, 4499, 4500, 4498, 4497
2802, 4442, 2515, 2516, 4440, 4500, 2544, 2545, 4498
2803, 1683, 4443, 4441, 1682, 1712, 4501, 4499, 1711
2804, 4443, 4444, 4442, 4441, 4501, 4502, 4500, 4499
2805, 4444, 2514, 2515, 4442, 4502, 2543, 2544, 4500
2806, 1684, 4445, 4443, 1683, 1713, 4503, 4501, 1712
2807, 4445, 4446, 4444, 4443, 4503, 4504, 4502, 4501
2808, 4446, 2513, 2514, 4444, 4504, 2542, 2543, 4502
2809, 1685, 4447, 4445, 1684, 1714, 4505, 4503, 1713
2810, 4447, 4448, 4446, 4445, 4505, 4506, 4504, 4503
2811, 4448, 2512, 2513, 4446, 4506, 2541, 2542, 4504
2812, 1686, 4449, 4447, 1685, 1715, 4507, 4505, 1714
2813, 4449, 4450, 4448, 4447, 4507, 4508, 4506, 4505
2814, 4450, 2511, 2512, 4448, 4508, 2540, 2541, 4506
2815, 1687, 4451, 4449, 1686, 1716, 4509, 4507, 1715
2816, 4451, 4452, 4450, 4449, 4509, 4510, 4508, 4507
2817, 4452, 2510, 2511, 4450, 4510, 2539, 2540, 4508
2818, 1688, 4453, 4451, 1687, 1717, 4511, 4509, 1716
2819, 4453, 4454, 4452, 4451, 4511, 4512, 4510, 4509
2820, 4454, 2509, 2510, 4452, 4512, 2538, 2539, 4510
2821, 1689, 4455, 4453, 1688, 1718, 4513, 4511, 1717
2822, 4455, 4456, 4454, 4453, 4513, 4514, 4512, 4511
2823, 4456, 2508, 2509, 4454, 4514, 2537, 2538, 4512
2824, 1690, 4457, 4455, 1689, 1719, 4515, 4513, 1718
2825, 4457, 4458, 4456, 4455, 4515, 4516, 4514, 4513
2826, 4458, 2507, 2508, 4456, 4516, 2536, 2537, 4514
2827, 1691, 4459, 4457, 1690, 1720, 4517, 4515, 1719
2828, 4459, 4460, 4458, 4457, 4517, 4518, 4516, 4515
2829, 4460, 2506, 2507, 4458, 4518, 2535, 2536, 4516
2830, 1692, 4461, 4459, 1691, 1721, 4519, 4517, 1720
2831, 4461, 4462, 4460, 4459, 4519, 4520, 4518, 4517
2832, 4462, 2505, 2506, 4460, 4520, 2534, 2535, 4518
2833,  231, 1039, 4461, 1692,  230, 1041, 4519, 1721
2834, 1039, 1040, 4462, 4461, 1041, 1042, 4520, 4519
2835, 1040,  216, 2505, 4462, 1042,  217, 2534, 4520
2836, 1693, 4463,  573,   82, 1722, 4521,  572,   81
2837, 4463, 4464,  544,  573, 4521, 4522,  543,  572
2838, 4464, 2562,   32,  544, 4522, 2591,   31,  543
2839, 1694, 4465, 4463, 1693, 1723, 4523, 4521, 1722
2840, 4465, 4466, 4464, 4463, 4523, 4524, 4522, 4521
2841, 4466, 2561, 2562, 4464, 4524, 2590, 2591, 4522
2842, 1695, 4467, 4465, 1694, 1724, 4525, 4523, 1723
2843, 4467, 4468, 4466, 4465, 4525, 4526, 4524, 4523
2844, 4468, 2560, 2561, 4466, 4526, 2589, 2590, 4524
2845, 1696, 4469, 4467, 1695, 1725, 4527, 4525, 1724
2846, 4469, 4470, 4468, 4467, 4527, 4528, 4526, 4525
2847, 4470, 2559, 2560, 4468, 4528, 2588, 2589, 4526
2848, 1697, 4471, 4469, 1696, 1726, 4529, 4527, 1725
2849, 4471, 4472, 4470, 4469, 4529, 4530, 4528, 4527
2850, 4472, 2558, 2559, 4470, 4530, 2587, 2588, 4528
2851, 1698, 4473, 4471, 1697, 1727, 4531, 4529, 1726
2852, 4473, 4474, 4472, 4471, 4531, 4532, 4530, 4529
2853, 4474, 2557, 2558, 4472, 4532, 2586, 2587, 4530
2854, 1699, 4475, 4473, 1698, 1728, 4533, 4531, 1727
2855, 4475, 4476, 4474, 4473, 4533, 4534, 4532, 4531
2856, 4476, 2556, 2557, 4474, 4534, 2585, 2586, 4532
2857, 1700, 4477, 4475, 1699, 1729, 4535, 4533, 1728
2858, 4477, 4478, 4476, 4475, 4535, 4536, 4534, 4533
2859, 4478, 2555, 2556, 4476, 4536, 2584, 2585, 4534
2860, 1701, 4479, 4477, 1700, 1730, 4537, 4535, 1729
2861, 4479, 4480, 4478, 4477, 4537, 4538, 4536, 4535
2862, 4480, 2554, 2555, 4478, 4538, 2583, 2584, 4536
2863, 1702, 4481, 4479, 1701, 1731, 4539, 4537, 1730
2864, 4481, 4482, 4480, 4479, 4539, 4540, 4538, 4537
2865, 4482, 2553, 2554, 4480, 4540, 2582, 2583, 4538
2866, 1703, 4483, 4481, 1702, 1732, 4541, 4539, 1731
2867, 4483, 4484, 4482, 4481, 4541, 4542, 4540, 4539
2868, 4484, 2552, 2553, 4482, 4542, 2581, 2582, 4540
2869, 1704, 4485, 4483, 1703, 1733, 4543, 4541, 1732
2870, 4485, 4486, 4484, 4483, 4543, 4544, 4542, 4541
2871, 4486, 2551, 2552, 4484, 4544, 2580, 2581, 4542
2872, 1705, 4487, 4485, 1704, 1734, 4545, 4543, 1733
2873, 4487, 4488, 4486, 4485, 4545, 4546, 4544, 4543
2874, 4488, 2550, 2551, 4486, 4546, 2579, 2580, 4544
2875, 1706, 4489, 4487, 1705, 1735, 4547, 4545, 1734
2876, 4489, 4490, 4488, 4487, 4547, 4548, 4546, 4545
2877, 4490, 2549, 2550, 4488, 4548, 2578, 2579, 4546
2878, 1707, 4491, 4489, 1706, 1736, 4549, 4547, 1735
2879, 4491, 4492, 4490, 4489, 4549, 4550, 4548, 4547
2880, 4492, 2548, 2549, 4490, 4550, 2577, 2578, 4548
2881, 1708, 4493, 4491, 1707, 1737, 4551, 4549, 1736
2882, 4493, 4494, 4492, 4491, 4551, 4552, 4550, 4549
2883, 4494, 2547, 2548, 4492, 4552, 2576, 2577, 4550
2884, 1709, 4495, 4493, 1708, 1738, 4553, 4551, 1737
2885, 4495, 4496, 4494, 4493, 4553, 4554, 4552, 4551
2886, 4496, 2546, 2547, 4494, 4554, 2575, 2576, 4552
2887, 1710, 4497, 4495, 1709, 1739, 4555, 4553, 1738
2888, 4497, 4498, 4496, 4495, 4555, 4556, 4554, 4553
2889, 4498, 2545, 2546, 4496, 4556, 2574, 2575, 4554
2890, 1711, 4499, 4497, 1710, 1740, 4557, 4555, 1739
2891, 4499, 4500, 4498, 4497, 4557, 4558, 4556, 4555
2892, 4500, 2544, 2545, 4498, 4558, 2573, 2574, 4556
2893, 1712, 4501, 4499, 1711, 1741, 4559, 4557, 1740
2894, 4501, 4502, 4500, 4499, 4559, 4560, 4558, 4557
2895, 4502, 2543, 2544, 4500, 4560, 2572, 2573, 4558
2896, 1713, 4503, 4501, 1712, 1742, 4561, 4559, 1741
2897, 4503, 4504, 4502, 4501, 4561, 4562, 4560, 4559
2898, 4504, 2542, 2543, 4502, 4562, 2571, 2572, 4560
2899, 1714, 4505, 4503, 1713, 1743, 4563, 4561, 1742
2900, 4505, 4506, 4504, 4503, 4563, 4564, 4562, 4561
2901, 4506, 2541, 2542, 4504, 4564, 2570, 2571, 4562
2902, 1715, 4507, 4505, 1714, 1744, 4565, 4563, 1743
2903, 4507, 4508, 4506, 4505, 4565, 4566, 4564, 4563
2904, 4508, 2540, 2541, 4506, 4566, 2569, 2570, 4564
2905, 1716, 4509, 4507, 1715, 1745, 4567, 4565, 1744
2906, 4509, 4510, 4508, 4507, 4567, 4568, 4566, 4565
2907, 4510, 2539, 2540, 4508, 4568, 2568, 2569, 4566
2908, 1717, 4511, 4509, 1716, 1746, 4569, 4567, 1745
2909, 4511, 4512, 4510, 4509, 4569, 4570, 4568, 4567
2910, 4512, 2538, 2539, 4510, 4570, 2567, 2568, 4568
2911, 1718, 4513, 4511, 1717, 1747, 4571, 4569, 1746
2912, 4513, 4514, 4512, 4511, 4571, 4572, 4570, 4569
2913, 4514, 2537, 2538, 4512, 4572, 2566, 2567, 4570
2914, 1719, 4515, 4513, 1718, 1748, 4573, 4571, 1747
2915, 4515, 4516, 4514, 4513, 4573, 4574, 4572, 4571
2916, 4516, 2536, 2537, 4514, 4574, 2565, 2566, 4572
2917, 1720, 4517, 4515, 1719, 1749, 4575, 4573, 1748
2918, 4517, 4518, 4516, 4515, 4575, 4576, 4574, 4573
2919, 4518, 2535, 2536, 4516, 4576, 2564, 2565, 4574
2920, 1721, 4519, 4517, 1720, 1750, 4577, 4575, 1749
2921, 4519, 4520, 4518, 4517, 4577, 4578, 4576, 4575
2922, 4520, 2534, 2535, 4518, 4578, 2563, 2564, 4576
2923,  230, 1041, 4519, 1721,  229, 1043, 4577, 1750
2924, 1041, 1042, 4520, 4519, 1043, 1044, 4578, 4577
2925, 1042,  217, 2534, 4520, 1044,  218, 2563, 4578
2926, 1722, 4521,  572,   81, 1751, 4579,  571,   80
2927, 4521, 4522,  543,  572, 4579, 4580,  542,  571
2928, 4522, 2591,   31,  543, 4580, 2620,   30,  542
2929, 1723, 4523, 4521, 1722, 1752, 4581, 4579, 1751
2930, 4523, 4524, 4522, 4521, 4581, 4582, 4580, 4579
2931, 4524, 2590, 2591, 4522, 4582, 2619, 2620, 4580
2932, 1724, 4525, 4523, 1723, 1753, 4583, 4581, 1752
2933, 4525, 4526, 4524, 4523, 4583, 4584, 4582, 4581
2934, 4526, 2589, 2590, 4524, 4584, 2618, 2619, 4582
2935, 1725, 4527, 4525, 1724, 1754, 4585, 4583, 1753
2936, 4527, 4528, 4526, 4525, 4585, 4586, 4584, 4583
2937, 4528, 2588, 2589, 4526, 4586, 2617, 2618, 4584
2938, 1726, 4529, 4527, 1725, 1755, 4587, 4585, 1754
2939, 4529, 4530, 4528, 4527, 4587, 4588, 4586, 4585
2940, 4530, 2587, 2588, 4528, 4588, 2616, 2617, 4586
2941, 1727, 4531, 4529, 1726, 1756, 4589, 4587, 1755
2942, 4531, 4532, 4530, 4529, 4589, 4590, 4588, 4587
2943, 4532, 2586, 2587, 4530, 4590, 2615, 2616, 4588
2944, 1728, 4533, 4531, 1727, 1757, 4591, 4589, 1756
2945, 4533, 4534, 4532, 4531, 4591, 4592, 4590, 4589
2946, 4534, 2585, 2586, 4532, 4592, 2614, 2615, 4590
2947, 1729, 4535, 4533, 1728, 1758, 4593, 4591, 1757
2948, 4535, 4536, 4534, 4533, 4593, 4594, 4592, 4591
2949, 4536, 2584, 2585, 4534, 4594, 2613, 2614, 4592
2950, 1730, 4537, 4535, 1729, 1759, 4595, 4593, 1758
2951, 4537, 4538, 4536, 4535, 4595, 4596, 4594, 4593
2952, 4538, 2583, 2584, 4536, 4596, 2612, 2613, 4594
2953, 1731, 4539, 4537, 1730, 1760, 4597, 4595, 1759
2954, 4539, 4540, 4538, 4537, 4597, 4598, 4596, 4595
2955, 4540, 2582, 2583, 4538, 4598, 2611, 2612, 4596
2956, 1732, 4541, 4539, 1731, 1761, 4599, 4597, 1760
2957, 4541, 4542, 4540, 4539, 4599, 4600, 4598, 4597
2958, 4542, 2581, 2582, 4540, 4600, 2610, 2611, 4598
2959, 1733, 4543, 4541, 1732, 1762, 4601, 4599, 1761
2960, 4543, 4544, 4542, 4541, 4601, 4602, 4600, 4599
2961, 4544, 2580, 2581, 4542, 4602, 2609, 2610, 4600
2962, 1734, 4545, 4543, 1733, 1763, 4603, 4601, 1762
2963, 4545, 4546, 4544, 4543, 4603, 4604, 4602, 4601
2964, 4546, 2579, 2580, 4544, 4604, 2608, 2609, 4602
2965, 1735, 4547, 4545, 1734, 1764, 4605, 4603, 1763
2966, 4547, 4548, 4546, 4545, 4605, 4606, 4604, 4603
2967, 4548, 2578, 2579, 4546, 4606, 2607, 2608, 4604
2968, 1736, 4549, 4547, 1735, 1765, 4607, 4605, 1764
2969, 4549, 4550, 4548, 4547, 4607, 4608, 4606, 4605
2970, 4550, 2577, 2578, 4548, 4608, 2606, 2607, 4606
2971, 1737, 4551, 4549, 1736, 1766, 4609, 4607, 1765
2972, 4551, 4552, 4550, 4549, 4609, 4610, 4608, 4607
2973, 4552, 2576, 2577, 4550, 4610, 2605, 2606, 4608
2974, 1738, 4553, 4551, 1737, 1767, 4611, 4609, 1766
2975, 4553, 4554, 4552, 4551, 4611, 4612, 4610, 4609
2976, 4554, 2575, 2576, 4552, 4612, 2604, 2605, 4610
2977, 1739, 4555, 4553, 1738, 1768, 4613, 4611, 1767
2978, 4555, 4556, 4554, 4553, 4613, 4614, 4612, 4611
2979, 4556, 2574, 2575, 4554, 4614, 2603, 2604, 4612
2980, 1740, 4557, 4555, 1739, 1769, 4615, 4613, 1768
2981, 4557, 4558, 4556, 4555, 4615, 4616, 4614, 4613
2982, 4558, 2573, 2574, 4556, 4616, 2602, 2603, 4614
2983, 1741, 4559, 4557, 1740, 1770, 4617, 4615, 1769
2984, 4559, 4560, 4558, 4557, 4617, 4618, 4616, 4615
2985, 4560, 2572, 2573, 4558, 4618, 2601, 2602, 4616
2986, 1742, 4561, 4559, 1741, 1771, 4619, 4617, 1770
2987, 4561, 4562, 4560, 4559, 4619, 4620, 4618, 4617
2988, 4562, 2571, 2572, 4560, 4620, 2600, 2601, 4618
2989, 1743, 4563, 4561, 1742, 1772, 4621, 4619, 1771
2990, 4563, 4564, 4562, 4561, 4621, 4622, 4620, 4619
2991, 4564, 2570, 2571, 4562, 4622, 2599, 2600, 4620
2992, 1744, 4565, 4563, 1743, 1773, 4623, 4621, 1772
2993, 4565, 4566, 4564, 4563, 4623, 4624, 4622, 4621
2994, 4566, 2569, 2570, 4564, 4624, 2598, 2599, 4622
2995, 1745, 4567, 4565, 1744, 1774, 4625, 4623, 1773
2996, 4567, 4568, 4566, 4565, 4625, 4626, 4624, 4623
2997, 4568, 2568, 2569, 4566, 4626, 2597, 2598, 4624
2998, 1746, 4569, 4567, 1745, 1775, 4627, 4625, 1774
2999, 4569, 4570, 4568, 4567, 4627, 4628, 4626, 4625
3000, 4570, 2567, 2568, 4568, 4628, 2596, 2597, 4626
3001, 1747, 4571, 4569, 1746, 1776, 4629, 4627, 1775
3002, 4571, 4572, 4570, 4569, 4629, 4630, 4628, 4627
3003, 4572, 2566, 2567, 4570, 4630, 2595, 2596, 4628
3004, 1748, 4573, 4571, 1747, 1777, 4631, 4629, 1776
3005, 4573, 4574, 4572, 4571, 4631, 4632, 4630, 4629
3006, 4574, 2565, 2566, 4572, 4632, 2594, 2595, 4630
3007, 1749, 4575, 4573, 1748, 1778, 4633, 4631, 1777
3008, 4575, 4576, 4574, 4573, 4633, 4634, 4632, 4631
3009, 4576, 2564, 2565, 4574, 4634, 2593, 2594, 4632
3010, 1750, 4577, 4575, 1749, 1779, 4635, 4633, 1778
3011, 4577, 4578, 4576, 4575, 4635, 4636, 4634, 4633
3012, 4578, 2563, 2564, 4576, 4636, 2592, 2593, 4634
3013,  229, 1043, 4577, 1750,  228, 1045, 4635, 1779
3014, 1043, 1044, 4578, 4577, 1045, 1046, 4636, 4635
3015, 1044,  218, 2563, 4578, 1046,  219, 2592, 4636
3016, 1751, 4579,  571,   80, 1780, 4637,  570,   79
3017, 4579, 4580,  542,  571, 4637, 4638,  541,  570
3018, 4580, 2620,   30,  542, 4638, 2649,   29,  541
3019, 1752, 4581, 4579, 1751, 1781, 4639, 4637, 1780
3020, 4581, 4582, 4580, 4579, 4639, 4640, 4638, 4637
3021, 4582, 2619, 2620, 4580, 4640, 2648, 2649, 4638
3022, 1753, 4583, 4581, 1752, 1782, 4641, 4639, 1781
3023, 4583, 4584, 4582, 4581, 4641, 4642, 4640, 4639
3024, 4584, 2618, 2619, 4582, 4642, 2647, 2648, 4640
3025, 1754, 4585, 4583, 1753, 1783, 4643, 4641, 1782
3026, 4585, 4586, 4584, 4583, 4643, 4644, 4642, 4641
3027, 4586, 2617, 2618, 4584, 4644, 2646, 2647, 4642
3028, 1755, 4587, 4585, 1754, 1784, 4645, 4643, 1783
3029, 4587, 4588, 4586, 4585, 4645, 4646, 4644, 4643
3030, 4588, 2616, 2617, 4586, 4646, 2645, 2646, 4644
3031, 1756, 4589, 4587, 1755, 1785, 4647, 4645, 1784
3032, 4589, 4590, 4588, 4587, 4647, 4648, 4646, 4645
3033, 4590, 2615, 2616, 4588, 4648, 2644, 2645, 4646
3034, 1757, 4591, 4589, 1756, 1786, 4649, 4647, 1785
3035, 4591, 4592, 4590, 4589, 4649, 4650, 4648, 4647
3036, 4592, 2614, 2615, 4590, 4650, 2643, 2644, 4648
3037, 1758, 4593, 4591, 1757, 1787, 4651, 4649, 1786
3038, 4593, 4594, 4592, 4591, 4651, 4652, 4650, 4649
3039, 4594, 2613, 2614, 4592, 4652, 2642, 2643, 4650
3040, 1759, 4595, 4593, 1758, 1788, 4653, 4651, 1787
3041, 4595, 4596, 4594, 4593, 4653, 4654, 4652, 4651
3042, 4596, 2612, 2613, 4594, 4654, 2641, 2642, 4652
3043, 1760, 4597, 4595, 1759, 1789, 4655, 4653, 1788
3044, 4597, 4598, 4596, 4595, 4655, 4656, 4654, 4653
3045, 4598, 2611, 2612, 4596, 4656, 2640, 2641, 4654
3046, 1761, 4599, 4597, 1760, 1790, 4657, 4655, 1789
3047, 4599, 4600, 4598, 4597, 4657, 4658, 4656, 4655
3048, 4600, 2610, 2611, 4598, 4658, 2639, 2640, 4656
3049, 1762, 4601, 4599, 1761, 1791, 4659, 4657, 1790
3050, 4601, 4602, 4600, 4599, 4659, 4660, 4658, 4657
3051, 4602, 2609, 2610, 4600, 4660, 2638, 2639, 4658
3052, 1763, 4603, 4601, 1762, 1792, 4661, 4659, 1791
3053, 4603, 4604, 4602, 4601, 4661, 4662, 4660, 4659
3054, 4604, 2608, 2609, 4602, 4662, 2637, 2638, 4660
3055, 1764, 4605, 4603, 1763, 1793, 4663, 4661, 1792
3056, 4605, 4606, 4604, 4603, 4663, 4664, 4662, 4661
3057, 4606, 2607, 2608, 4604, 4664, 2636, 2637, 4662
3058, 1765, 4607, 4605, 1764, 1794, 4665, 4663, 1793
3059, 4607, 4608, 4606, 4605, 4665, 4666, 4664, 4663
3060, 4608, 2606, 2607, 4606, 4666, 2635, 2636, 4664
3061, 1766, 4609, 4607, 1765, 1795, 4667, 4665, 1794
3062, 4609, 4610, 4608, 4607, 4667, 4668, 4666, 4665
3063, 4610, 2605, 2606, 4608, 4668, 2634, 2635, 4666
3064, 1767, 4611, 4609, 1766, 1796, 4669, 4667, 1795
3065, 4611, 4612, 4610, 4609, 4669, 4670, 4668, 4667
3066, 4612, 2604, 2605, 4610, 4670, 2633, 2634, 4668
3067, 1768, 4613, 4611, 1767, 1797, 4671, 4669, 1796
3068, 4613, 4614, 4612, 4611, 4671, 4672, 4670, 4669
3069, 4614, 2603, 2604, 4612, 4672, 2632, 2633, 4670
3070, 1769, 4615, 4613, 1768, 1798, 4673, 4671, 1797
3071, 4615, 4616, 4614, 4613, 4673, 4674, 4672, 4671
3072, 4616, 2602, 2603, 4614, 4674, 2631, 2632, 4672
3073, 1770, 4617, 4615, 1769, 1799, 4675, 4673, 1798
3074, 4617, 4618, 4616, 4615, 4675, 4676, 4674, 4673
3075, 4618, 2601, 2602, 4616, 4676, 2630, 2631, 4674
3076, 1771, 4619, 4617, 1770, 1800, 4677, 4675, 1799
3077, 4619, 4620, 4618, 4617, 4677, 4678, 4676, 4675
3078, 4620, 2600, 2601, 4618, 4678, 2629, 2630, 4676
3079, 1772, 4621, 4619, 1771, 1801, 4679, 4677, 1800
3080, 4621, 4622, 4620, 4619, 4679, 4680, 4678, 4677
3081, 4622, 2599, 2600, 4620, 4680, 2628, 2629, 4678
3082, 1773, 4623, 4621, 1772, 1802, 4681, 4679, 1801
3083, 4623, 4624, 4622, 4621, 4681, 4682, 4680, 4679
3084, 4624, 2598, 2599, 4622, 4682, 2627, 2628, 4680
3085, 1774, 4625, 4623, 1773, 1803, 4683, 4681, 1802
3086, 4625, 4626, 4624, 4623, 4683, 4684, 4682, 4681
3087, 4626, 2597, 2598, 4624, 4684, 2626, 2627, 4682
3088, 1775, 4627, 4625, 1774, 1804, 4685, 4683, 1803
3089, 4627, 4628, 4626, 4625, 4685, 4686, 4684, 4683
3090, 4628, 2596, 2597, 4626, 4686, 2625, 2626, 4684
3091, 1776, 4629, 4627, 1775, 1805, 4687, 4685, 1804
3092, 4629, 4630, 4628, 4627, 4687, 4688, 4686, 4685
3093, 4630, 2595, 2596, 4628, 4688, 2624, 2625, 4686
3094, 1777, 4631, 4629, 1776, 1806, 4689, 4687, 1805
3095, 4631, 4632, 4630, 4629, 4689, 4690, 4688, 4687
3096, 4632, 2594, 2595, 4630, 4690, 2623, 2624, 4688
3097, 1778, 4633, 4631, 1777, 1807, 4691, 4689, 1806
3098, 4633, 4634, 4632, 4631, 4691, 4692, 4690, 4689
3099, 4634, 2593, 2594, 4632, 4692, 2622, 2623, 4690
3100, 1779, 4635, 4633, 1778, 1808, 4693, 4691, 1807
3101, 4635, 4636, 4634, 4633, 4693, 4694, 4692, 4691
3102, 4636, 2592, 2593, 4634, 4694, 2621, 2622, 4692
3103,  228, 1045, 4635, 1779,  227, 1047, 4693, 1808
3104, 1045, 1046, 4636, 4635, 1047, 1048, 4694, 4693
3105, 1046,  219, 2592, 4636, 1048,  220, 2621, 4694
3106, 1780, 4637,  570,   79, 1809, 4695,  569,   78
3107, 4637, 4638,  541,  570, 4695, 4696,  540,  569
3108, 4638, 2649,   29,  541, 4696, 2678,   28,  540
3109, 1781, 4639, 4637, 1780, 1810, 4697, 4695, 1809
3110, 4639, 4640, 4638, 4637, 4697, 4698, 4696, 4695
3111, 4640, 2648, 2649, 4638, 4698, 2677, 2678, 4696
3112, 1782, 4641, 4639, 1781, 1811, 4699, 4697, 1810
3113, 4641, 4642, 4640, 4639, 4699, 4700, 4698, 4697
3114, 4642, 2647, 2648, 4640, 4700, 2676, 2677, 4698
3115, 1783, 4643, 4641, 1782, 1812, 4701, 4699, 1811
3116, 4643, 4644, 4642, 4641, 4701, 4702, 4700, 4699
3117, 4644, 2646, 2647, 4642, 4702, 2675, 2676, 4700
3118, 1784, 4645, 4643, 1783, 1813, 4703, 4701, 1812
3119, 4645, 4646, 4644, 4643, 4703, 4704, 4702, 4701
3120, 4646, 2645, 2646, 4644, 4704, 2674, 2675, 4702
3121, 1785, 4647, 4645, 1784, 1814, 4705, 4703, 1813
3122, 4647, 4648, 4646, 4645, 4705, 4706, 4704, 4703
3123, 4648, 2644, 2645, 4646, 4706, 2673, 2674, 4704
3124, 1786, 4649, 4647, 1785, 1815, 4707, 4705, 1814
3125, 4649, 4650, 4648, 4647, 4707, 4708, 4706, 4705
3126, 4650, 2643, 2644, 4648, 4708, 2672, 2673, 4706
3127, 1787, 4651, 4649, 1786, 1816, 4709, 4707, 1815
3128, 4651, 4652, 4650, 4649, 4709, 4710, 4708, 4707
3129, 4652, 2642, 2643, 4650, 4710, 2671, 2672, 4708
3130, 1788, 4653, 4651, 1787, 1817, 4711, 4709, 1816
3131, 4653, 4654, 4652, 4651, 4711, 4712, 4710, 4709
3132, 4654, 2641, 2642, 4652, 4712, 2670, 2671, 4710
3133, 1789, 4655, 4653, 1788, 1818, 4713, 4711, 1817
3134, 4655, 4656, 4654, 4653, 4713, 4714, 4712, 4711
3135, 4656, 2640, 2641, 4654, 4714, 2669, 2670, 4712
3136, 1790, 4657, 4655, 1789, 1819, 4715, 4713, 1818
3137, 4657, 4658, 4656, 4655, 4715, 4716, 4714, 4713
3138, 4658, 2639, 2640, 4656, 4716, 2668, 2669, 4714
3139, 1791, 4659, 4657, 1790, 1820, 4717, 4715, 1819
3140, 4659, 4660, 4658, 4657, 4717, 4718, 4716, 4715
3141, 4660, 2638, 2639, 4658, 4718, 2667, 2668, 4716
3142, 1792, 4661, 4659, 1791, 1821, 4719, 4717, 1820
3143, 4661, 4662, 4660, 4659, 4719, 4720, 4718, 4717
3144, 4662, 2637, 2638, 4660, 4720, 2666, 2667, 4718
3145, 1793, 4663, 4661, 1792, 1822, 4721, 4719, 1821
3146, 4663, 4664, 4662, 4661, 4721, 4722, 4720, 4719
3147, 4664, 2636, 2637, 4662, 4722, 2665, 2666, 4720
3148, 1794, 4665, 4663, 1793, 1823, 4723, 4721, 1822
3149, 4665, 4666, 4664, 4663, 4723, 4724, 4722, 4721
3150, 4666, 2635, 2636, 4664, 4724, 2664, 2665, 4722
3151, 1795, 4667, 4665, 1794, 1824, 4725, 4723, 1823
3152, 4667, 4668, 4666, 4665, 4725, 4726, 4724, 4723
3153, 4668, 2634, 2635, 4666, 4726, 2663, 2664, 4724
3154, 1796, 4669, 4667, 1795, 1825, 4727, 4725, 1824
3155, 4669, 4670, 4668, 4667, 4727, 4728, 4726, 4725
3156, 4670, 2633, 2634, 4668, 4728, 2662, 2663, 4726
3157, 1797, 4671, 4669, 1796, 1826, 4729, 4727, 1825
3158, 4671, 4672, 4670, 4669, 4729, 4730, 4728, 4727
3159, 4672, 2632, 2633, 4670, 4730, 2661, 2662, 4728
3160, 1798, 4673, 4671, 1797, 1827, 4731, 4729, 1826
3161, 4673, 4674, 4672, 4671, 4731, 4732, 4730, 4729
3162, 4674, 2631, 2632, 4672, 4732, 2660, 2661, 4730
3163, 1799, 4675, 4673, 1798, 1828, 4733, 4731, 1827
3164, 4675, 4676, 4674, 4673, 4733, 4734, 4732, 4731
3165, 4676, 2630, 2631, 4674, 4734, 2659, 2660, 4732
3166, 1800, 4677, 4675, 1799, 1829, 4735, 4733, 1828
3167, 4677, 4678, 4676, 4675, 4735, 4736, 4734, 4733
3168, 4678, 2629, 2630, 4676, 4736, 2658, 2659, 4734
3169, 1801, 4679, 4677, 1800, 1830, 4737, 4735, 1829
3170, 4679, 4680, 4678, 4677, 4737, 4738, 4736, 4735
3171, 4680, 2628, 2629, 4678, 4738, 2657, 2658, 4736
3172, 1802, 4681, 4679, 1801, 1831, 4739, 4737, 1830
3173, 4681, 4682, 4680, 4679, 4739, 4740, 4738, 4737
3174, 4682, 2627, 2628, 4680, 4740, 2656, 2657, 4738
3175, 1803, 4683, 4681, 1802, 1832, 4741, 4739, 1831
3176, 4683, 4684, 4682, 4681, 4741, 4742, 4740, 4739
3177, 4684, 2626, 2627, 4682, 4742, 2655, 2656, 4740
3178, 1804, 4685, 4683, 1803, 1833, 4743, 4741, 1832
3179, 4685, 4686, 4684, 4683, 4743, 4744, 4742, 4741
3180, 4686, 2625, 2626, 4684, 4744, 2654, 2655, 4742
3181, 1805, 4687, 4685, 1804, 1834, 4745, 4743, 1833
3182, 4687, 4688, 4686, 4685, 4745, 4746, 4744, 4743
3183, 4688, 2624, 2625, 4686, 4746, 2653, 2654, 4744
3184, 1806, 4689, 4687, 1805, 1835, 4747, 4745, 1834
3185, 4689, 4690, 4688, 4687, 4747, 4748, 4746, 4745
3186, 4690, 2623, 2624, 4688, 4748, 2652, 2653, 4746
3187, 1807, 4691, 4689, 1806, 1836, 4749, 4747, 1835
3188, 4691, 4692, 4690, 4689, 4749, 4750, 4748, 4747
3189, 4692, 2622, 2623, 4690, 4750, 2651, 2652, 4748
3190, 1808, 4693, 4691, 1807, 1837, 4751, 4749, 1836
3191, 4693, 4694, 4692, 4691, 4751, 4752, 4750, 4749
3192, 4694, 2621, 2622, 4692, 4752, 2650, 2651, 4750
3193,  227, 1047, 4693, 1808,  226, 1049, 4751, 1837
3194, 1047, 1048, 4694, 4693, 1049, 1050, 4752, 4751
3195, 1048,  220, 2621, 4694, 1050,  221, 2650, 4752
3196, 1809, 4695,  569,   78, 1838, 4753,  568,   77
3197, 4695, 4696,  540,  569, 4753, 4754,  539,  568
3198, 4696, 2678,   28,  540, 4754, 2707,   27,  539
3199, 1810, 4697, 4695, 1809, 1839, 4755, 4753, 1838
3200, 4697, 4698, 4696, 4695, 4755, 4756, 4754, 4753
3201, 4698, 2677, 2678, 4696, 4756, 2706, 2707, 4754
3202, 1811, 4699, 4697, 1810, 1840, 4757, 4755, 1839
3203, 4699, 4700, 4698, 4697, 4757, 4758, 4756, 4755
3204, 4700, 2676, 2677, 4698, 4758, 2705, 2706, 4756
3205, 1812, 4701, 4699, 1811, 1841, 4759, 4757, 1840
3206, 4701, 4702, 4700, 4699, 4759, 4760, 4758, 4757
3207, 4702, 2675, 2676, 4700, 4760, 2704, 2705, 4758
3208, 1813, 4703, 4701, 1812, 1842, 4761, 4759, 1841
3209, 4703, 4704, 4702, 4701, 4761, 4762, 4760, 4759
3210, 4704, 2674, 2675, 4702, 4762, 2703, 2704, 4760
3211, 1814, 4705, 4703, 1813, 1843, 4763, 4761, 1842
3212, 4705, 4706, 4704, 4703, 4763, 4764, 4762, 4761
3213, 4706, 2673, 2674, 4704, 4764, 2702, 2703, 4762
3214, 1815, 4707, 4705, 1814, 1844, 4765, 4763, 1843
3215, 4707, 4708, 4706, 4705, 4765, 4766, 4764, 4763
3216, 4708, 2672, 2673, 4706, 4766, 2701, 2702, 4764
3217, 1816, 4709, 4707, 1815, 1845, 4767, 4765, 1844
3218, 4709, 4710, 4708, 4707, 4767, 4768, 4766, 4765
3219, 4710, 2671, 2672, 4708, 4768, 2700, 2701, 4766
3220, 1817, 4711, 4709, 1816, 1846, 4769, 4767, 1845
3221, 4711, 4712, 4710, 4709, 4769, 4770, 4768, 4767
3222, 4712, 2670, 2671, 4710, 4770, 2699, 2700, 4768
3223, 1818, 4713, 4711, 1817, 1847, 4771, 4769, 1846
3224, 4713, 4714, 4712, 4711, 4771, 4772, 4770, 4769
3225, 4714, 2669, 2670, 4712, 4772, 2698, 2699, 4770
3226, 1819, 4715, 4713, 1818, 1848, 4773, 4771, 1847
3227, 4715, 4716, 4714, 4713, 4773, 4774, 4772, 4771
3228, 4716, 2668, 2669, 4714, 4774, 2697, 2698, 4772
3229, 1820, 4717, 4715, 1819, 1849, 4775, 4773, 1848
3230, 4717, 4718, 4716, 4715, 4775, 4776, 4774, 4773
3231, 4718, 2667, 2668, 4716, 4776, 2696, 2697, 4774
3232, 1821, 4719, 4717, 1820, 1850, 4777, 4775, 1849
3233, 4719, 4720, 4718, 4717, 4777, 4778, 4776, 4775
3234, 4720, 2666, 2667, 4718, 4778, 2695, 2696, 4776
3235, 1822, 4721, 4719, 1821, 1851, 4779, 4777, 1850
3236, 4721, 4722, 4720, 4719, 4779, 4780, 4778, 4777
3237, 4722, 2665, 2666, 4720, 4780, 2694, 2695, 4778
3238, 1823, 4723, 4721, 1822, 1852, 4781, 4779, 1851
3239, 4723, 4724, 4722, 4721, 4781, 4782, 4780, 4779
3240, 4724, 2664, 2665, 4722, 4782, 2693, 2694, 4780
3241, 1824, 4725, 4723, 1823, 1853, 4783, 4781, 1852
3242, 4725, 4726, 4724, 4723, 4783, 4784, 4782, 4781
3243, 4726, 2663, 2664, 4724, 4784, 2692, 2693, 4782
3244, 1825, 4727, 4725, 1824, 1854, 4785, 4783, 1853
3245, 4727, 4728, 4726, 4725, 4785, 4786, 4784, 4783
3246, 4728, 2662, 2663, 4726, 4786, 2691, 2692, 4784
3247, 1826, 4729, 4727, 1825, 1855, 4787, 4785, 1854
3248, 4729, 4730, 4728, 4727, 4787, 4788, 4786, 4785
3249, 4730, 2661, 2662, 4728, 4788, 2690, 2691, 4786
3250, 1827, 4731, 4729, 1826, 1856, 4789, 4787, 1855
3251, 4731, 4732, 4730, 4729, 4789, 4790, 4788, 4787
3252, 4732, 2660, 2661, 4730, 4790, 2689, 2690, 4788
3253, 1828, 4733, 4731, 1827, 1857, 4791, 4789, 1856
3254, 4733, 4734, 4732, 4731, 4791, 4792, 4790, 4789
3255, 4734, 2659, 2660, 4732, 4792, 2688, 2689, 4790
3256, 1829, 4735, 4733, 1828, 1858, 4793, 4791, 1857
3257, 4735, 4736, 4734, 4733, 4793, 4794, 4792, 4791
3258, 4736, 2658, 2659, 4734, 4794, 2687, 2688, 4792
3259, 1830, 4737, 4735, 1829, 1859, 4795, 4793, 1858
3260, 4737, 4738, 4736, 4735, 4795, 4796, 4794, 4793
3261, 4738, 2657, 2658, 4736, 4796, 2686, 2687, 4794
3262, 1831, 4739, 4737, 1830, 1860, 4797, 4795, 1859
3263, 4739, 4740, 4738, 4737, 4797, 4798, 4796, 4795
3264, 4740, 2656, 2657, 4738, 4798, 2685, 2686, 4796
3265, 1832, 4741, 4739, 1831, 1861, 4799, 4797, 1860
3266, 4741, 4742, 4740, 4739, 4799, 4800, 4798, 4797
3267, 4742, 2655, 2656, 4740, 4800, 2684, 2685, 4798
3268, 1833, 4743, 4741, 1832, 1862, 4801, 4799, 1861
3269, 4743, 4744, 4742, 4741, 4801, 4802, 4800, 4799
3270, 4744, 2654, 2655, 4742, 4802, 2683, 2684, 4800
3271, 1834, 4745, 4743, 1833, 1863, 4803, 4801, 1862
3272, 4745, 4746, 4744, 4743, 4803, 4804, 4802, 4801
3273, 4746, 2653, 2654, 4744, 4804, 2682, 2683, 4802
3274, 1835, 4747, 4745, 1834, 1864, 4805, 4803, 1863
3275, 4747, 4748, 4746, 4745, 4805, 4806, 4804, 4803
3276, 4748, 2652, 2653, 4746, 4806, 2681, 2682, 4804
3277, 1836, 4749, 4747, 1835, 1865, 4807, 4805, 1864
3278, 4749, 4750, 4748, 4747, 4807, 4808, 4806, 4805
3279, 4750, 2651, 2652, 4748, 4808, 2680, 2681, 4806
3280, 1837, 4751, 4749, 1836, 1866, 4809, 4807, 1865
3281, 4751, 4752, 4750, 4749, 4809, 4810, 4808, 4807
3282, 4752, 2650, 2651, 4750, 4810, 2679, 2680, 4808
3283,  226, 1049, 4751, 1837,  225, 1051, 4809, 1866
3284, 1049, 1050, 4752, 4751, 1051, 1052, 4810, 4809
3285, 1050,  221, 2650, 4752, 1052,  222, 2679, 4810
3286, 1838, 4753,  568,   77, 1867, 4811,  567,   76
3287, 4753, 4754,  539,  568, 4811, 4812,  538,  567
3288, 4754, 2707,   27,  539, 4812, 2736,   26,  538
3289, 1839, 4755, 4753, 1838, 1868, 4813, 4811, 1867
3290, 4755, 4756, 4754, 4753, 4813, 4814, 4812, 4811
3291, 4756, 2706, 2707, 4754, 4814, 2735, 2736, 4812
3292, 1840, 4757, 4755, 1839, 1869, 4815, 4813, 1868
3293, 4757, 4758, 4756, 4755, 4815, 4816, 4814, 4813
3294, 4758, 2705, 2706, 4756, 4816, 2734, 2735, 4814
3295, 1841, 4759, 4757, 1840, 1870, 4817, 4815, 1869
3296, 4759, 4760, 4758, 4757, 4817, 4818, 4816, 4815
3297, 4760, 2704, 2705, 4758, 4818, 2733, 2734, 4816
3298, 1842, 4761, 4759, 1841, 1871, 4819, 4817, 1870
3299, 4761, 4762, 4760, 4759, 4819, 4820, 4818, 4817
3300, 4762, 2703, 2704, 4760, 4820, 2732, 2733, 4818
3301, 1843, 4763, 4761, 1842, 1872, 4821, 4819, 1871
3302, 4763, 4764, 4762, 4761, 4821, 4822, 4820, 4819
3303, 4764, 2702, 2703, 4762, 4822, 2731, 2732, 4820
3304, 1844, 4765, 4763, 1843, 1873, 4823, 4821, 1872
3305, 4765, 4766, 4764, 4763, 4823, 4824, 4822, 4821
3306, 4766, 2701, 2702, 4764, 4824, 2730, 2731, 4822
3307, 1845, 4767, 4765, 1844, 1874, 4825, 4823, 1873
3308, 4767, 4768, 4766, 4765, 4825, 4826, 4824, 4823
3309, 4768, 2700, 2701, 4766, 4826, 2729, 2730, 4824
3310, 1846, 4769, 4767, 1845, 1875, 4827, 4825, 1874
3311, 4769, 4770, 4768, 4767, 4827, 4828, 4826, 4825
3312, 4770, 2699, 2700, 4768, 4828, 2728, 2729, 4826
3313, 1847, 4771, 4769, 1846, 1876, 4829, 4827, 1875
3314, 4771, 4772, 4770, 4769, 4829, 4830, 4828, 4827
3315, 4772, 2698, 2699, 4770, 4830, 2727, 2728, 4828
3316, 1848, 4773, 4771, 1847, 1877, 4831, 4829, 1876
3317, 4773, 4774, 4772, 4771, 4831, 4832, 4830, 4829
3318, 4774, 2697, 2698, 4772, 4832, 2726, 2727, 4830
3319, 1849, 4775, 4773, 1848, 1878, 4833, 4831, 1877
3320, 4775, 4776, 4774, 4773, 4833, 4834, 4832, 4831
3321, 4776, 2696, 2697, 4774, 4834, 2725, 2726, 4832
3322, 1850, 4777, 4775, 1849, 1879, 4835, 4833, 1878
3323, 4777, 4778, 4776, 4775, 4835, 4836, 4834, 4833
3324, 4778, 2695, 2696, 4776, 4836, 2724, 2725, 4834
3325, 1851, 4779, 4777, 1850, 1880, 4837, 4835, 1879
3326, 4779, 4780, 4778, 4777, 4837, 4838, 4836, 4835
3327, 4780, 2694, 2695, 4778, 4838, 2723, 2724, 4836
3328, 1852, 4781, 4779, 1851, 1881, 4839, 4837, 1880
3329, 4781, 4782, 4780, 4779, 4839, 4840, 4838, 4837
3330, 4782, 2693, 2694, 4780, 4840, 2722, 2723, 4838
3331, 1853, 4783, 4781, 1852, 1882, 4841, 4839, 1881
3332, 4783, 4784, 4782, 4781, 4841, 4842, 4840, 4839
3333, 4784, 2692, 2693, 4782, 4842, 2721, 2722, 4840
3334, 1854, 4785, 4783, 1853, 1883, 4843, 4841, 1882
3335, 4785, 4786, 4784, 4783, 4843, 4844, 4842, 4841
3336, 4786, 2691, 2692, 4784, 4844, 2720, 2721, 4842
3337, 1855, 4787, 4785, 1854, 1884, 4845, 4843, 1883
3338, 4787, 4788, 4786, 4785, 4845, 4846, 4844, 4843
3339, 4788, 2690, 2691, 4786, 4846, 2719, 2720, 4844
3340, 1856, 4789, 4787, 1855, 1885, 4847, 4845, 1884
3341, 4789, 4790, 4788, 4787, 4847, 4848, 4846, 4845
3342, 4790, 2689, 2690, 4788, 4848, 2718, 2719, 4846
3343, 1857, 4791, 4789, 1856, 1886, 4849, 4847, 1885
3344, 4791, 4792, 4790, 4789, 4849, 4850, 4848, 4847
3345, 4792, 2688, 2689, 4790, 4850, 2717, 2718, 4848
3346, 1858, 4793, 4791, 1857, 1887, 4851, 4849, 1886
3347, 4793, 4794, 4792, 4791, 4851, 4852, 4850, 4849
3348, 4794, 2687, 2688, 4792, 4852, 2716, 2717, 4850
3349, 1859, 4795, 4793, 1858, 1888, 4853, 4851, 1887
3350, 4795, 4796, 4794, 4793, 4853, 4854, 4852, 4851
3351, 4796, 2686, 2687, 4794, 4854, 2715, 2716, 4852
3352, 1860, 4797, 4795, 1859, 1889, 4855, 4853, 1888
3353, 4797, 4798, 4796, 4795, 4855, 4856, 4854, 4853
3354, 4798, 2685, 2686, 4796, 4856, 2714, 2715, 4854
3355, 1861, 4799, 4797, 1860, 1890, 4857, 4855, 1889
3356, 4799, 4800, 4798, 4797, 4857, 4858, 4856, 4855
3357, 4800, 2684, 2685, 4798, 4858, 2713, 2714, 4856
3358, 1862, 4801, 4799, 1861, 1891, 4859, 4857, 1890
3359, 4801, 4802, 4800, 4799, 4859, 4860, 4858, 4857
3360, 4802, 2683, 2684, 4800, 4860, 2712, 2713, 4858
3361, 1863, 4803, 4801, 1862, 1892, 4861, 4859, 1891
3362, 4803, 4804, 4802, 4801, 4861, 4862, 4860, 4859
3363, 4804, 2682, 2683, 4802, 4862, 2711, 2712, 4860
3364, 1864, 4805, 4803, 1863, 1893, 4863, 4861, 1892
3365, 4805, 4806, 4804, 4803, 4863, 4864, 4862, 4861
3366, 4806, 2681, 2682, 4804, 4864, 2710, 2711, 4862
3367, 1865, 4807, 4805, 1864, 1894, 4865, 4863, 1893
3368, 4807, 4808, 4806, 4805, 4865, 4866, 4864, 4863
3369, 4808, 2680, 2681, 4806, 4866, 2709, 2710, 4864
3370, 1866, 4809, 4807, 1865, 1895, 4867, 4865, 1894
3371, 4809, 4810, 4808, 4807, 4867, 4868, 4866, 4865
3372, 4810, 2679, 2680, 4808, 4868, 2708, 2709, 4866
3373,  225, 1051, 4809, 1866,  224, 1053, 4867, 1895
3374, 1051, 1052, 4810, 4809, 1053, 1054, 4868, 4867
3375, 1052,  222, 2679, 4810, 1054,  223, 2708, 4868
3376, 1867, 4811,  567,   76,  253,  939,   56,    4
3377, 4811, 4812,  538,  567,  939,  940,   55,   56
3378, 4812, 2736,   26,  538,  940,  312,    1,   55
3379, 1868, 4813, 4811, 1867,  254,  941,  939,  253
3380, 4813, 4814, 4812, 4811,  941,  942,  940,  939
3381, 4814, 2735, 2736, 4812,  942,  311,  312,  940
3382, 1869, 4815, 4813, 1868,  255,  943,  941,  254
3383, 4815, 4816, 4814, 4813,  943,  944,  942,  941
3384, 4816, 2734, 2735, 4814,  944,  310,  311,  942
3385, 1870, 4817, 4815, 1869,  256,  945,  943,  255
3386, 4817, 4818, 4816, 4815,  945,  946,  944,  943
3387, 4818, 2733, 2734, 4816,  946,  309,  310,  944
3388, 1871, 4819, 4817, 1870,  257,  947,  945,  256
3389, 4819, 4820, 4818, 4817,  947,  948,  946,  945
3390, 4820, 2732, 2733, 4818,  948,  308,  309,  946
3391, 1872, 4821, 4819, 1871,  258,  949,  947,  257
3392, 4821, 4822, 4820, 4819,  949,  950,  948,  947
3393, 4822, 2731, 2732, 4820,  950,  307,  308,  948
3394, 1873, 4823, 4821, 1872,  259,  951,  949,  258
3395, 4823, 4824, 4822, 4821,  951,  952,  950,  949
3396, 4824, 2730, 2731, 4822,  952,  306,  307,  950
3397, 1874, 4825, 4823, 1873,  260,  953,  951,  259
3398, 4825, 4826, 4824, 4823,  953,  954,  952,  951
3399, 4826, 2729, 2730, 4824,  954,  305,  306,  952
3400, 1875, 4827, 4825, 1874,  261,  955,  953,  260
3401, 4827, 4828, 4826, 4825,  955,  956,  954,  953
3402, 4828, 2728, 2729, 4826,  956,  304,  305,  954
3403, 1876, 4829, 4827, 1875,  262,  957,  955,  261
3404, 4829, 4830, 4828, 4827,  957,  958,  956,  955
3405, 4830, 2727, 2728, 4828,  958,  303,  304,  956
3406, 1877, 4831, 4829, 1876,  263,  959,  957,  262
3407, 4831, 4832, 4830, 4829,  959,  960,  958,  957
3408, 4832, 2726, 2727, 4830,  960,  302,  303,  958
3409, 1878, 4833, 4831, 1877,  264,  961,  959,  263
3410, 4833, 4834, 4832, 4831,  961,  962,  960,  959
3411, 4834, 2725, 2726, 4832,  962,  301,  302,  960
3412, 1879, 4835, 4833, 1878,  265,  963,  961,  264
3413, 4835, 4836, 4834, 4833,  963,  964,  962,  961
3414, 4836, 2724, 2725, 4834,  964,  300,  301,  962
3415, 1880, 4837, 4835, 1879,  266,  965,  963,  265
3416, 4837, 4838, 4836, 4835,  965,  966,  964,  963
3417, 4838, 2723, 2724, 4836,  966,  299,  300,  964
3418, 1881, 4839, 4837, 1880,  267,  967,  965,  266
3419, 4839, 4840, 4838, 4837,  967,  968,  966,  965
3420, 4840, 2722, 2723, 4838,  968,  298,  299,  966
3421, 1882, 4841, 4839, 1881,  268,  969,  967,  267
3422, 4841, 4842, 4840, 4839,  969,  970,  968,  967
3423, 4842, 2721, 2722, 4840,  970,  297,  298,  968
3424, 1883, 4843, 4841, 1882,  269,  971,  969,  268
3425, 4843, 4844, 4842, 4841,  971,  972,  970,  969
3426, 4844, 2720, 2721, 4842,  972,  296,  297,  970
3427, 1884, 4845, 4843, 1883,  270,  973,  971,  269
3428, 4845, 4846, 4844, 4843,  973,  974,  972,  971
3429, 4846, 2719, 2720, 4844,  974,  295,  296,  972
3430, 1885, 4847, 4845, 1884,  271,  975,  973,  270
3431, 4847, 4848, 4846, 4845,  975,  976,  974,  973
3432, 4848, 2718, 2719, 4846,  976,  294,  295,  974
3433, 1886, 4849, 4847, 1885,  272,  977,  975,  271
3434, 4849, 4850, 4848, 4847,  977,  978,  976,  975
3435, 4850, 2717, 2718, 4848,  978,  293,  294,  976
3436, 1887, 4851, 4849, 1886,  273,  979,  977,  272
3437, 4851, 4852, 4850, 4849,  979,  980,  978,  977
3438, 4852, 2716, 2717, 4850,  980,  292,  293,  978
3439, 1888, 4853, 4851, 1887,  274,  981,  979,  273
3440, 4853, 4854, 4852, 4851,  981,  982,  980,  979
3441, 4854, 2715, 2716, 4852,  982,  291,  292,  980
3442, 1889, 4855, 4853, 1888,  275,  983,  981,  274
3443, 4855, 4856, 4854, 4853,  983,  984,  982,  981
3444, 4856, 2714, 2715, 4854,  984,  290,  291,  982
3445, 1890, 4857, 4855, 1889,  276,  985,  983,  275
3446, 4857, 4858, 4856, 4855,  985,  986,  984,  983
3447, 4858, 2713, 2714, 4856,  986,  289,  290,  984
3448, 1891, 4859, 4857, 1890,  277,  987,  985,  276
3449, 4859, 4860, 4858, 4857,  987,  988,  986,  985
3450, 4860, 2712, 2713, 4858,  988,  288,  289,  986
3451, 1892, 4861, 4859, 1891,  278,  989,  987,  277
3452, 4861, 4862, 4860, 4859,  989,  990,  988,  987
3453, 4862, 2711, 2712, 4860,  990,  287,  288,  988
3454, 1893, 4863, 4861, 1892,  279,  991,  989,  278
3455, 4863, 4864, 4862, 4861,  991,  992,  990,  989
3456, 4864, 2710, 2711, 4862,  992,  286,  287,  990
3457, 1894, 4865, 4863, 1893,  280,  993,  991,  279
3458, 4865, 4866, 4864, 4863,  993,  994,  992,  991
3459, 4866, 2709, 2710, 4864,  994,  285,  286,  992
3460, 1895, 4867, 4865, 1894,  281,  995,  993,  280
3461, 4867, 4868, 4866, 4865,  995,  996,  994,  993
3462, 4868, 2708, 2709, 4866,  996,  284,  285,  994
3463,  224, 1053, 4867, 1895,    9,  282,  995,  281
3464, 1053, 1054, 4868, 4867,  282,  283,  996,  995
3465, 1054,  223, 2708, 4868,  283,   10,  284,  996
*Nset, nset=Set-1, generate
    1,  4868,     1
*Elset, elset=Set-1, generate
    1,  3465,     1
*Orientation, name=Ori-1
1., 0., 0., 0., 1., 0.
1, 0.
** Section: Al_killed_section
*Solid Section, elset=Set-1, orientation=Ori-1, material=Al_killed_steel
,
*End Part
**  
*Part, name=die
*End Part
**  
*Part, name=punch
*End Part
**  
**
** ASSEMBLY
**
*Assembly, name=Assembly
**  
*Instance, name=blank-1, part=blank
      128.25,          16., -1.11022302462516e-16
      128.25,          16., -1.11022302462516e-16, 129.250000012688,          16., -1.11022302462516e-16, 89.9999992730282
*End Instance
**  
*Instance, name=die-1, part=die
      128.25,           0.,           0.
*Node
      1,           0.,  -36.8467865, -1.80635409e-15
*Nset, nset=die-1-RefPt_, internal
1, 
*Surface, type=REVOLUTION, name=m_Surf-1
START,         44.5, -36.8467875173176
 LINE,         29.5, -36.8467875173176
 LINE,         29.5, -31.8467875173176
 LINE,         24.5, -31.8467875173176
 LINE,         24.5, -13.1865334794732
 CIRCL, 25.1698729810778, -10.6865334794732,         29.5, -13.1865334794732
 LINE, 37.1132486540519,          10.
 CIRCL, 45.7735026918963,          15., 45.7735026918963,           5.
 LINE,          60.,          15.
*Rigid Body, ref node=die-1-RefPt_, analytical surface=m_Surf-1
*End Instance
**  
*Instance, name=punch-1, part=punch
      128.25,    16.057663,           0.
*Node
      1,           0.,    69.942337, -1.37772768e-15
*Nset, nset=punch-1-RefPt_, internal
1, 
*Surface, type=REVOLUTION, name=m_Surf-3
START,         22.5, 69.9423370361328
 LINE,         22.5, 5.94233703613281
 CIRCL,         16.5, -0.0576629638671875,         16.5, 5.94233703613281
 LINE,           0., -0.0576629638671875
*Rigid Body, ref node=punch-1-RefPt_, analytical surface=m_Surf-3
*End Instance
**  
*Nset, nset=Set-1, instance=die-1
 1,
*Nset, nset=Set-2, instance=punch-1
 1,
*Nset, nset=Set-3, instance=blank-1
   1,   3,   4,   6,   9,  10,  11,  12,  13,  14,  15,  16,  17,  18,  19,  20
  21,  22,  23,  24,  25,  55,  56,  74,  75, 105, 106, 107, 108, 109, 110, 111
 112, 113, 114, 115, 116, 117, 118, 119, 253, 254, 255, 256, 257, 258, 259, 260
 261, 262, 263, 264, 265, 266, 267, 268, 269, 270, 271, 272, 273, 274, 275, 276
 277, 278, 279, 280, 281, 282, 283, 284, 285, 286, 287, 288, 289, 290, 291, 292
 293, 294, 295, 296, 297, 298, 299, 300, 301, 302, 303, 304, 305, 306, 307, 308
 309, 310, 311, 312, 596, 597, 598, 599, 600, 601, 602, 603, 604, 605, 606, 607
 608, 609, 610, 611, 612, 613, 614, 615, 616, 617, 618, 619, 620, 621, 622, 623
 624, 625, 939, 940, 941, 942, 943, 944, 945, 946, 947, 948, 949, 950, 951, 952
 953, 954, 955, 956, 957, 958, 959, 960, 961, 962, 963, 964, 965, 966, 967, 968
 969, 970, 971, 972, 973, 974, 975, 976, 977, 978, 979, 980, 981, 982, 983, 984
 985, 986, 987, 988, 989, 990, 991, 992, 993, 994, 995, 996
*Elset, elset=Set-3, instance=blank-1
    1,   45,   60,   75,   90,  105,  120,  135,  150,  165,  180,  195,  210,  225,  240,  255
  256,  257,  316,  317,  318,  319,  320,  321,  322,  323,  324,  325,  326,  327,  328,  329
  330,  331,  332,  333,  334,  335,  336,  337,  338,  339,  340,  341,  342,  343,  344,  345
 3376, 3377, 3378, 3379, 3380, 3381, 3382, 3383, 3384, 3385, 3386, 3387, 3388, 3389, 3390, 3391
 3392, 3393, 3394, 3395, 3396, 3397, 3398, 3399, 3400, 3401, 3402, 3403, 3404, 3405, 3406, 3407
 3408, 3409, 3410, 3411, 3412, 3413, 3414, 3415, 3416, 3417, 3418, 3419, 3420, 3421, 3422, 3423
 3424, 3425, 3426, 3427, 3428, 3429, 3430, 3431, 3432, 3433, 3434, 3435, 3436, 3437, 3438, 3439
 3440, 3441, 3442, 3443, 3444, 3445, 3446, 3447, 3448, 3449, 3450, 3451, 3452, 3453, 3454, 3455
 3456, 3457, 3458, 3459, 3460, 3461, 3462, 3463, 3464, 3465
*Nset, nset=Set-4, instance=blank-1
   2,   3,   5,   6,   7,   8,  57,  58,  59,  60,  61,  62,  63,  64,  65,  66
  67,  68,  69,  70,  71,  72,  73,  74,  75, 120, 121, 122, 123, 124, 125, 126
 127, 128, 129, 130, 131, 132, 133, 134, 135, 136, 137, 138, 139, 140, 141, 142
 143, 144, 145, 146, 147, 148, 149, 150, 151, 152, 153, 154, 155, 156, 157, 158
 159, 160, 161, 162, 163, 164, 165, 166, 167, 168, 169, 170, 171, 172, 173, 174
 175, 176, 177, 178, 179, 180, 181, 182, 183, 184, 185, 186, 187, 188, 189, 190
 191, 192, 193, 194, 626, 627, 628, 629, 630, 631, 632, 633, 634, 635, 636, 637
 638, 639, 640, 641, 642, 643, 644, 645, 646, 647, 648, 649, 650, 651, 652, 653
 654, 655, 881, 882, 883, 884, 885, 886, 887, 888, 889, 890, 891, 892, 893, 894
 895, 896, 897, 898, 899, 900, 901, 902, 903, 904, 905, 906, 907, 908, 909, 910
 911, 912, 913, 914, 915, 916, 917, 918, 919, 920, 921, 922, 923, 924, 925, 926
 927, 928, 929, 930, 931, 932, 933, 934, 935, 936, 937, 938
*Elset, elset=Set-4, instance=blank-1
  30,  31,  32,  33,  34,  35,  36,  37,  38,  39,  40,  41,  42,  43,  44,  45
 300, 315, 316, 317, 346, 347, 376, 377, 406, 407, 436, 437, 466, 467, 496, 497
 526, 527, 556, 557, 586, 587, 616, 617, 646, 647, 676, 677, 706, 707, 736, 737
 766, 767, 768, 769, 770, 771, 772, 773, 774, 775, 776, 777, 778, 779, 780, 781
 782, 783, 784, 785, 786, 787, 788, 789, 790, 791, 792, 793, 794, 795, 796, 797
 798, 799, 800, 801, 802, 803, 804, 805, 806, 807, 808, 809, 810, 811, 812, 813
 814, 815, 816, 817, 818, 819, 820, 821, 822, 823, 824, 825, 826, 827, 828, 829
 830, 831, 832, 833, 834, 835, 836, 837, 838, 839, 840, 841, 842, 843, 844, 845
 846, 847, 848, 849, 850, 851, 852, 853, 854, 855
*Elset, elset=_s_Surf-1_S4, internal, instance=blank-1
 257, 259, 261, 263, 265, 267, 269, 271, 273, 275, 277, 279, 281, 283, 285, 317
 319, 321, 323, 325, 327, 329, 331, 333, 335, 337, 339, 341, 343, 345, 347, 349
 351, 353, 355, 357, 359, 361, 363, 365, 367, 369, 371, 373, 375, 377, 379, 381
 383, 385, 387, 389, 391, 393, 395, 397, 399, 401, 403, 405, 407, 409, 411, 413
 415, 417, 419, 421, 423, 425, 427, 429, 431, 433, 435, 437, 439, 441, 443, 445
 447, 449, 451, 453, 455, 457, 459, 461, 463, 465, 467, 469, 471, 473, 475, 477
 479, 481, 483, 485, 487, 489, 491, 493, 495, 497, 499, 501, 503, 505, 507, 509
 511, 513, 515, 517, 519, 521, 523, 525, 527, 529, 531, 533, 535, 537, 539, 541
 543, 545, 547, 549, 551, 553, 555, 557, 559, 561, 563, 565, 567, 569, 571, 573
 575, 577, 579, 581, 583, 585, 587, 589, 591, 593, 595, 597, 599, 601, 603, 605
 607, 609, 611, 613, 615, 617, 619, 621, 623, 625, 627, 629, 631, 633, 635, 637
 639, 641, 643, 645, 647, 649, 651, 653, 655, 657, 659, 661, 663, 665, 667, 669
 671, 673, 675, 677, 679, 681, 683, 685, 687, 689, 691, 693, 695, 697, 699, 701
 703, 705, 707, 709, 711, 713, 715, 717, 719, 721, 723, 725, 727, 729, 731, 733
 735, 737, 739, 741, 743, 745, 747, 749, 751, 753, 755, 757, 759, 761, 763, 765
*Elset, elset=_s_Surf-1_S3, internal, instance=blank-1, generate
 286,  300,    1
*Elset, elset=_s_Surf-1_S6, internal, instance=blank-1, generate
  766,  3463,     3
*Surface, type=ELEMENT, name=s_Surf-1
_s_Surf-1_S4, S4
_s_Surf-1_S3, S3
_s_Surf-1_S6, S6
*Elset, elset=_s_Surf-3_S4, internal, instance=blank-1, generate
  768,  3465,     3
*Elset, elset=_s_Surf-3_S2, internal, instance=blank-1, generate
   1,  255,    1
*Surface, type=ELEMENT, name=s_Surf-3
_s_Surf-3_S4, S4
_s_Surf-3_S2, S2
*End Assembly
** 
** MATERIALS
** 
*Material, name=Al_killed_steel
*Elastic
209000., 0.3
*Plastic
 131.233,    0.
 154.664, 0.002
 170.263, 0.004
 182.277, 0.006
 192.176, 0.008
 200.662,  0.01
 208.129, 0.012
 214.821, 0.014
 220.902, 0.016
 226.487, 0.018
 231.661,  0.02
 236.488, 0.022
 241.017, 0.024
 245.288, 0.026
 249.332, 0.028
 253.175,  0.03
 256.839, 0.032
 260.341, 0.034
 263.699, 0.036
 266.924, 0.038
 270.029,  0.04
 273.022, 0.042
 275.914, 0.044
 278.711, 0.046
  281.42, 0.048
 284.048,  0.05
 286.601, 0.052
 289.081, 0.054
 291.496, 0.056
 293.847, 0.058
  296.14,  0.06
 298.376, 0.062
  300.56, 0.064
 302.694, 0.066
 304.781, 0.068
 306.823,  0.07
 308.822, 0.072
  310.78, 0.074
 312.699, 0.076
 314.581, 0.078
 316.427,  0.08
 318.239, 0.082
 320.019, 0.084
 321.767, 0.086
 323.486, 0.088
 325.175,  0.09
 326.837, 0.092
 328.472, 0.094
 330.081, 0.096
 331.665, 0.098
 333.225,   0.1
 334.762, 0.102
 336.277, 0.104
  337.77, 0.106
 339.242, 0.108
 340.694,  0.11
 342.126, 0.112
 343.539, 0.114
 344.934, 0.116
  346.31, 0.118
  347.67,  0.12
 349.012, 0.122
 350.338, 0.124
 351.648, 0.126
 352.943, 0.128
 354.222,  0.13
 355.487, 0.132
 356.737, 0.134
 357.974, 0.136
 359.196, 0.138
 360.406,  0.14
 361.603, 0.142
 362.787, 0.144
 363.958, 0.146
 365.118, 0.148
 366.266,  0.15
 367.402, 0.152
 368.528, 0.154
 369.642, 0.156
 370.746, 0.158
 371.839,  0.16
 372.922, 0.162
 373.995, 0.164
 375.058, 0.166
 376.111, 0.168
 377.155,  0.17
  378.19, 0.172
 379.216, 0.174
 380.232, 0.176
 381.241, 0.178
  382.24,  0.18
 383.232, 0.182
 384.215, 0.184
  385.19, 0.186
 386.157, 0.188
 387.117,  0.19
 388.069, 0.192
 389.013, 0.194
  389.95, 0.196
  390.88, 0.198
 391.803,   0.2
 392.719, 0.202
 393.628, 0.204
 394.531, 0.206
 395.426, 0.208
 396.316,  0.21
 397.199, 0.212
 398.075, 0.214
 398.946, 0.216
  399.81, 0.218
 400.669,  0.22
 401.521, 0.222
 402.368, 0.224
 403.209, 0.226
 404.044, 0.228
 404.874,  0.23
 405.699, 0.232
 406.518, 0.234
 407.332, 0.236
  408.14, 0.238
 408.944,  0.24
 409.743, 0.242
 410.536, 0.244
 411.325, 0.246
 412.108, 0.248
 412.887,  0.25
 413.662, 0.252
 414.431, 0.254
 415.196, 0.256
 415.957, 0.258
 416.713,  0.26
 417.465, 0.262
 418.212, 0.264
 418.955, 0.266
 419.694, 0.268
 420.429,  0.27
 421.159, 0.272
 421.886, 0.274
 422.609, 0.276
 423.327, 0.278
 424.042,  0.28
 424.753, 0.282
  425.46, 0.284
 426.163, 0.286
 426.862, 0.288
 427.558,  0.29
 428.251, 0.292
 428.939, 0.294
 429.624, 0.296
 430.306, 0.298
 430.984,   0.3
 431.659, 0.302
  432.33, 0.304
 432.998, 0.306
 433.663, 0.308
 434.324,  0.31
 434.983, 0.312
 435.638, 0.314
  436.29, 0.316
 436.938, 0.318
 437.584,  0.32
 438.227, 0.322
 438.866, 0.324
 439.503, 0.326
 440.137, 0.328
 440.767,  0.33
 441.395, 0.332
  442.02, 0.334
 442.642, 0.336
 443.262, 0.338
 443.878,  0.34
 444.492, 0.342
 445.103, 0.344
 445.712, 0.346
 446.317, 0.348
  446.92,  0.35
 447.521, 0.352
 448.119, 0.354
 448.714, 0.356
 449.307, 0.358
 449.897,  0.36
 450.485, 0.362
 451.071, 0.364
 451.654, 0.366
 452.234, 0.368
 452.812,  0.37
 453.388, 0.372
 453.962, 0.374
 454.533, 0.376
 455.102, 0.378
 455.668,  0.38
 456.232, 0.382
 456.794, 0.384
 457.354, 0.386
 457.912, 0.388
 458.467,  0.39
 459.021, 0.392
 459.572, 0.394
 460.121, 0.396
 460.668, 0.398
 461.213,   0.4
 461.755, 0.402
 462.296, 0.404
 462.835, 0.406
 463.372, 0.408
 463.906,  0.41
 464.439, 0.412
  464.97, 0.414
 465.499, 0.416
 466.026, 0.418
 466.551,  0.42
 467.074, 0.422
 467.595, 0.424
 468.114, 0.426
 468.632, 0.428
 469.147,  0.43
 469.661, 0.432
 470.173, 0.434
 470.684, 0.436
 471.192, 0.438
 471.699,  0.44
 472.204, 0.442
 472.707, 0.444
 473.208, 0.446
 473.708, 0.448
 474.206,  0.45
 474.703, 0.452
 475.198, 0.454
 475.691, 0.456
 476.182, 0.458
 476.672,  0.46
  477.16, 0.462
 477.647, 0.464
 478.132, 0.466
 478.616, 0.468
 479.097,  0.47
 479.578, 0.472
 480.057, 0.474
 480.534, 0.476
  481.01, 0.478
 481.484,  0.48
 481.957, 0.482
 482.428, 0.484
 482.898, 0.486
 483.366, 0.488
 483.833,  0.49
 484.298, 0.492
 484.762, 0.494
 485.225, 0.496
 485.686, 0.498
 486.146,   0.5
 486.604, 0.502
 487.061, 0.504
 487.517, 0.506
 487.971, 0.508
 488.424,  0.51
*Potential
1., 1.0256,  1.252, 1.0897,     1.,     1.
** 
** INTERACTION PROPERTIES
** 
*Surface Interaction, name=IntProp-1
1.,
*Friction, slip tolerance=0.005
 0.15,
*Surface Behavior, pressure-overclosure=HARD
** 
** INTERACTIONS
** 
** Interaction: blank_punch
*Contact Pair, interaction=IntProp-1, type=SURFACE TO SURFACE
s_Surf-3, punch-1.m_Surf-3
** Interaction: die_blank
*Contact Pair, interaction=IntProp-1, type=SURFACE TO SURFACE, adjust=0.0
s_Surf-1, die-1.m_Surf-1
** ----------------------------------------------------------------
** 
** STEP: Step-1
** 
*Step, name=Step-1, nlgeom=YES, inc=1000
*Static
0.001, 1., 1e-05, 1.
** 
** BOUNDARY CONDITIONS
** 
** Name: blank_xy Type: Displacement/Rotation
*Boundary
Set-4, 3, 3
** Name: blank_yz Type: Displacement/Rotation
*Boundary
Set-3, 1, 1
** Name: die Type: Symmetry/Antisymmetry/Encastre
*Boundary
Set-1, ENCASTRE
** Name: punch Type: Displacement/Rotation
*Boundary
Set-2, 1, 1
Set-2, 2, 2, -123.
Set-2, 3, 3
Set-2, 4, 4
Set-2, 5, 5
Set-2, 6, 6
** 
** OUTPUT REQUESTS
** 
*Restart, write, frequency=0
** 
** FIELD OUTPUT: F-Output-1
** 
*Output, field, variable=PRESELECT
** 
** HISTORY OUTPUT: H-Output-1
** 
*Output, history, variable=PRESELECT
*End Step
